#  HZ   S   DB   R     50.00 
! Rohde & Schwarz ZVA67 4Ports - Version 3.50 - 1305.7002k04 SN: 101113
! Date: 2025-11-24 11:58:14
! Measurements: S11 S12 S13 S14 S21 S22 S23 S24 S31 S32 S33 S34 S41 S42 S43 S44 
! 
 1.000000000000000E7    -2.015233065673048E1  -3.424213357654978  -5.086394775950419E1  -9.885415845081447E1  -5.449999126322074E1   1.119278916452362E2  -7.000682028054154E-1  -4.222748591673512E1  
                        -4.926270208738185E1   1.220046877678214E2  -2.716124236094568E1   1.287830940613260E2   1.317139256181795  -2.181895484253368E1  -5.013549040066126E1  -9.881747124530946E1  
                        -5.722444709814972E1   1.107318313561005E2  -1.351531509673133E-1  -4.124087983354725E1  -2.758664056626400E1   1.222633429418594E2  -5.191952787745475E1  -1.434421678867657E2  
                        -1.165939335960692  -3.696334329882100E1  -5.967276813710046E1  -1.208741573526590E2  -6.286041737144149E1   9.439195897008924  -2.777617188116550E1  -2.433867336835380E1  
                        
 8.006006006006005E7    -2.989834487480621E1   3.852664840478311E1  -7.000315580812141E1   1.554270630258473E1  -5.858164660921652E1   3.093092171906457E1  -6.892628970438232E-1   1.173925428137118E2  
                        -6.912649253899379E1   2.340400465767953E1  -3.171273582761128E1  -6.925278867770173E1  -7.176827435940181E-1   1.169648705962599E2  -6.084749093758627E1   1.402350185783119E1  
                        -5.941459697398814E1   3.215915570485327E1  -7.397718701632230E-1   1.164169909856848E2  -3.115950588598578E1   1.449256166172073E1  -7.068072465791653E1   2.845877685364328E1  
                        -8.451715795013490E-1   1.183367253559516E2  -6.000424223128693E1   1.395154987232407E1  -7.426226468997878E1   4.523760020356076  -2.909897971754168E1  -1.153845456791680E2  
                        
 1.501201201201201E8    -3.341389873125723E1  -3.507549649175460E1  -6.491895291465436E1   1.729310942699631E2  -5.422940664451330E1  -9.365033793081794  -9.492437563065589E-1  -9.135292847060181E1  
                        -6.391269840051319E1   1.722865062898761E2  -2.856076839309138E1  -7.084424464799301E1  -9.680750037844299E-1  -9.275462504882778E1  -5.581190360012798E1   2.448805441541888  
                        -5.461934062981657E1  -1.220917488430665E1  -9.374271635157315E-1  -9.260562575435118E1  -3.216326894190982E1  -6.931435485577504E1  -6.492587185506491E1   1.662381530776995E2  
                        -9.721233777546677E-1  -9.210181523495010E1  -5.617830584801665E1   2.953215739395127  -6.404256165527508E1   1.763996211415134E2  -2.846674996646833E1  -7.853084733379583E1  
                        
 2.201801801801802E8    -2.605071374294825E1  -1.172180616624424E2  -6.195816445334157E1  -3.180625643661161E1  -5.155578201336898E1  -5.352309411966999E1  -1.275899509975967   5.833938957856545E1  
                        -6.221274603155533E1  -3.076903623390792E1  -3.060401325997489E1  -3.674035666751055E1  -1.115630744852008   5.702051897548781E1  -5.256595914172173E1  -1.145393427617113E1  
                        -5.139291638474583E1  -5.646194078508233E1  -1.228364906488388   5.739493706097390E1  -2.731658103107968E1  -1.056872961739472E2  -6.169164212506719E1  -3.396169432766222E1  
                        -1.279375931163014   5.831142925095586E1  -5.278726316199831E1  -8.735148285649485  -6.176444764754685E1  -3.519920020551800E1  -2.922976558807329E1  -1.389831742812647E1  
                        
 2.902402402402402E8    -2.516310722935518E1  -1.722181160773579E2  -5.954358914890742E1   1.142879330908277E2  -4.888175771004799E1  -9.815536489012648E1  -1.439617572795161  -1.520809824298210E2  
                        -5.945337032829757E1   1.149177653622401E2  -4.196974642459726E1   1.626041437615968E1  -1.415037162370709  -1.518246649904910E2  -5.074337565037735E1  -2.608717471852303E1  
                        -4.920254025851477E1  -9.843253606404859E1  -1.455956902524103  -1.525157556970536E2  -2.978782292277317E1  -1.698334734023508E2  -5.902872975355572E1   1.217384976125099E2  
                        -1.382217766724814  -1.513194549766182E2  -5.090602740405098E1  -2.558910859893290E1  -5.935332890822462E1   1.193183208535643E2  -2.756280771372363E1   3.888948709329350E1  
                        
 3.603003003003002E8    -3.070441054652902E1   1.773127045323523E2  -5.669576595231974E1  -9.335135309364378E1  -4.728288793737671E1  -1.437275739861517E2  -1.592992722442856  -1.491835552040342  
                        -5.654544785237057E1  -9.090092925276780E1  -3.965586509390536E1  -3.783134919680990E1  -1.546391795685425  -1.111142800574198  -4.917636417698623E1  -4.099191508840050E1  
                        -4.724633898555944E1  -1.421891081034685E2  -1.646574156724713  -1.363311810365566  -2.841631814825443E1   1.697208635119319E2  -5.715853065815535E1  -9.315271302348783E1  
                        -1.587777316707101  -9.018664548560164E-1  -4.916814573547141E1  -4.134947275575815E1  -5.688904670122557E1  -8.824122426846314E1  -3.340914939883908E1  -2.732631229408659E1  
                        
 4.303603603603603E8    -2.561118978273114E1   1.214680494645642E2  -5.664836874740522E1   5.324193878641670E1  -4.575902015598275E1   1.714863499075638E2  -1.719271073144346   1.496160577932637E2  
                        -5.669605917827148E1   5.321029190151421E1  -2.776155448335182E1  -6.742407695674791E1  -1.825402133795336   1.498395330269930E2  -4.798433375401716E1  -5.350594352586192E1  
                        -4.574414346314496E1   1.715146106222396E2  -1.795455722331205   1.496163452187636E2  -2.643566696827842E1   1.317369799449818E2  -5.621036354400845E1   5.458902315894299E1  
                        -1.721453459537468   1.502700548834347E2  -4.801029167259371E1  -5.321408382374175E1  -5.632834071829304E1   5.515289321521742E1  -2.594608996979761E1  -4.616079541111508E1  
                        
 5.004204204204204E8    -2.622558038883759E1   8.776475451807814E1  -5.569430899445172E1  -1.567286352980141E2  -4.444494411650917E1   1.269166098908170E2  -1.883282546716071  -5.975869900290189E1  
                        -5.562732912149915E1  -1.584870409534341E2  -2.893622169769175E1  -6.493882816968883E1  -1.927412821075365  -5.901374529181828E1  -4.691934957900106E1  -6.788953274123263E1  
                        -4.447055728371453E1   1.268668835777144E2  -1.915930135381818  -5.954609910692192E1  -2.813844236152885E1   7.620063897381534E1  -5.531622920044752E1  -1.526514760669584E2  
                        -1.888279520615780  -5.902163469254668E1  -4.683385177138205E1  -6.765578408564483E1  -5.522436828282643E1  -1.537415980669142E2  -2.413525547883616E1  -7.110215911801672E1  
                        
 5.704804804804804E8    -3.114270745948738E1   1.482618325993527E1  -5.538087579891895E1  -6.171298947770778E-1  -4.341337615672313E1   8.232027971277628E1  -2.050872143932515   9.125046661102826E1  
                        -5.546744435946325E1   5.589468530843914E-2  -3.022487379756755E1  -1.343293275654923E2  -2.036664563575983   9.188433480730407E1  -4.632665600650647E1  -7.990839660582000E1  
                        -4.341469067421308E1   8.296136794496185E1  -2.034360462070742   9.133625478280861E1  -3.157136313736220E1   3.872588489390485E1  -5.501606613054945E1  -4.774986817106445E-1  
                        -2.025562826342672   9.203661399222929E1  -4.623482497991891E1  -7.967142235585112E1  -5.501836325869233E1   6.078061290569253E-1  -2.934140424831685E1  -9.210796934022400E1  
                        
 6.405405405405405E8    -3.385466870156368E1  -1.920252249435480E1  -5.479222734412753E1   1.535135269036204E2  -4.233711175881592E1   3.747261998041064E1  -2.171341928083536  -1.177475946941266E2  
                        -5.479587714803741E1   1.551398720008514E2  -2.973545585074597E1  -1.391368283951891E2  -2.167197808503691  -1.166475987422422E2  -4.549384043576476E1  -9.177710298892828E1  
                        -4.240577858256027E1   3.769570508786169E1  -2.182145730497344  -1.174809228931270E2  -3.196181554990188E1   1.546242759727211E1  -5.431787051375991E1   1.525766845728103E2  
                        -2.163271984451142  -1.168907894857494E2  -4.552700302450387E1  -9.167493039613889E1  -5.427733226686574E1   1.529859505842001E2  -3.478173892925146E1  -1.582182693406615E2  
                        
 7.106006006006005E8    -3.171305489383649E1  -8.640036184422434E1  -5.413113634103590E1  -5.390632264843035E1  -4.156276446712577E1  -8.074776732467180  -2.302176341804651   3.350350403259051E1  
                        -5.400787066980329E1  -5.397860006032322E1  -3.221666268101415E1  -1.642389439621730E2  -2.243968060286843   3.428093915826050E1  -4.460662050946543E1  -1.049452031970878E2  
                        -4.160100691994692E1  -7.943300514400180  -2.250562952329314   3.349786393981575E1  -3.113578335090760E1  -5.240734699964204E1  -5.377499232120487E1  -5.571334653323507E1  
                        -2.301875176121139   3.394960021849474E1  -4.460069793538565E1  -1.047233502671396E2  -5.372443046340324E1  -5.469060565916941E1  -3.854199159375580E1  -9.975413038248426E1  
                        
 7.806606606606606E8    -3.277354441743923E1  -1.333505155610266E2  -5.305941192355039E1   9.996554764126907E1  -4.078189768184925E1  -5.230572897770543E1  -2.464271585371125  -1.755453472009586E2  
                        -5.307678676064647E1   1.011774527868414E2  -3.869464815026171E1   1.179453913756535E2  -2.393073566270159  -1.746010251944992E2  -4.413954113473207E1  -1.171491475233518E2  
                        -4.080939299332956E1  -5.239994233141690E1  -2.393803594992416  -1.751804902666230E2  -4.040009028159968E1   1.702912848736548E2  -5.272374650598613E1   1.016010932571419E2  
                        -2.456908756640894  -1.748068265654058E2  -4.406533907348893E1  -1.167105857618629E2  -5.269585761618862E1   1.024542075796991E2  -3.184260349591805E1  -1.095122075674638E2  
                        
 8.507207207207207E8    -3.216669487669908E1   1.313082144503776E2  -5.190642853245861E1  -1.059110281082469E2  -4.003569545530961E1  -9.637458748877769E1  -2.565613244308946  -2.433042357332334E1  
                        -5.181608798786642E1  -1.047117415971188E2  -3.503786931148728E1   8.603666934215721E1  -2.499358440373349  -2.345165483897908E1  -4.349935145495212E1  -1.294568026976786E2  
                        -4.007639928364938E1  -9.675907026210059E1  -2.514251396855620  -2.399654824754840E1  -3.473342883251016E1   1.162237973090508E2  -5.150608027006130E1  -1.047309284385854E2  
                        -2.606908204932131  -2.369757465171510E1  -4.349988127178268E1  -1.292491511913620E2  -5.150481938827279E1  -1.044397103279661E2  -3.742040457590721E1   2.947231626080084E1  
                        
 9.207807807807807E8    -3.121732792416919E1   8.496732061856946E1  -5.104603436406807E1   4.430258645592441E1  -3.937369331136403E1  -1.417310421636796E2  -2.705554324895906   1.270013280341464E2  
                        -5.100791050749595E1   4.428032987594143E1  -3.753799226207976E1   1.545691145301770E2  -2.564419443425952   1.282247300178595E2  -4.294218969818008E1  -1.419049493815308E2  
                        -3.941885343107627E1  -1.417323313527336E2  -2.586640261032414   1.269538073360365E2  -3.675960219183190E1   1.047702488529790E2  -5.086668717267511E1   4.301749227945994E1  
                        -2.687906888701108   1.278397585437973E2  -4.289947391405694E1  -1.419153135314146E2  -5.080617604523121E1   4.402281069739367E1  -4.067711294195808E1   3.110173979147290E1  
                        
 9.908408408408408E8    -2.776829672287538E1   4.247254229642977E1  -5.070610207008193E1  -1.641096830039241E2  -3.881319714198827E1   1.740626224190651E2  -2.794520534130572  -8.136510136776347E1  
                        -5.055524957390883E1  -1.634405577864448E2  -3.826977650227578E1   8.676839522166772E1  -2.664270535258614  -8.086844499696801E1  -4.246526265536792E1  -1.546122146048029E2  
                        -3.884288767094341E1   1.736763485757374E2  -2.703208429590045  -8.176482308704030E1  -3.131169123303711E1   3.676149437557169E1  -5.028342339176940E1  -1.643490574258811E2  
                        -2.775772717830938  -8.068170181249514E1  -4.243099878752275E1  -1.547827818903700E2  -5.021947435782571E1  -1.635379298310932E2  -3.166569021672589E1  -9.016236091183600E1  
                        
 1.060900900900901E9    -2.962934008792236E1  -8.531574721916696  -5.021291023658196E1  -1.399286338480835E1  -3.825606509654185E1   1.291772929427203E2  -2.897507174700010   6.989098017768451E1  
                        -5.014737695946614E1  -1.278182194488857E1  -3.884809209356457E1   5.076995725219584E1  -2.755053497351794   7.037961175579163E1  -4.206960127543055E1  -1.678756825842319E2  
                        -3.826547809100383E1   1.294281105399642E2  -2.800685475705953   6.935280252822422E1  -3.199070599255165E1  -6.835474255755618  -4.995559923913173E1  -1.310656104657633E1  
                        -2.896138083154286   7.063855477958114E1  -4.202533020091160E1  -1.679355936228722E2  -4.994556744871162E1  -1.216921642593876E1  -4.091137364304445E1   5.941870951926070E1  
                        
 1.130960960960961E9    -3.801490691054455E1  -8.580616319954871E1  -4.973776390463281E1   1.371944586485672E2  -3.763087842972843E1   8.443916738317908E1  -2.990340313424847  -1.389804568453039E2  
                        -4.971322980075740E1   1.380154035380382E2  -2.752476692478462E1   5.089588868104244E1  -2.915070340516229  -1.384211111302572E2  -4.178036227476289E1   1.797829100744327E2  
                        -3.769337767139541E1   8.453302820096907E1  -2.915599098642759  -1.396062175496603E2  -3.011418020893456E1  -8.482142017396498E1  -4.981934161410383E1   1.423806970081184E2  
                        -3.022053579360283  -1.381041558425797E2  -4.173982952377465E1   1.797143353446651E2  -4.974960141253462E1   1.429950453490233E2  -3.518300070732931E1   6.154140387899962E1  
                        
 1.201021021021021E9    -3.207670461611364E1  -1.114834748237607E2  -4.979194179856490E1  -6.564332274914742E1  -3.720724926073191E1   3.968281551851658E1  -3.115200952177305   1.237638894675594E1  
                        -4.988355818133519E1  -6.545247340469537E1  -2.900947277573585E1   6.881362966172821E1  -2.961760232394459   1.328425240731097E1  -4.139989572827764E1   1.677273631067176E2  
                        -3.725999945055650E1   3.950285112995407E1  -2.992809281065007   1.183640100025243E1  -3.691559448883127E1  -1.622896148340085E2  -4.931223668337555E1  -6.739546381288928E1  
                        -3.119567479136293   1.332757261196893E1  -4.138482037819722E1   1.676710790783741E2  -4.929009741457693E1  -6.611492696050242E1  -3.770194074382382E1   6.740704171006716E1  
                        
 1.271081081081081E9    -3.006446215901493E1  -1.744960350429270E2  -4.939614734675093E1   8.950686972805448E1  -3.678612001916165E1  -5.007971106598371  -3.196212214624393   1.636147947277802E2  
                        -4.947497856230479E1   8.995020924876172E1  -2.723519745579325E1   6.978075702348605  -3.026812324875159   1.641412912589474E2  -4.108450343650129E1   1.554586324438737E2  
                        -3.682138338437721E1  -5.112969818803510  -3.087824615205130   1.631888680146464E2  -3.131447606051249E1   1.676240772579605E2  -4.925458989958168E1   8.937313851728007E1  
                        -3.200762715660268   1.646444655084227E2  -4.106894588286595E1   1.558310800520453E2  -4.913348316974135E1   9.075572123710609E1  -3.202407436605771E1   9.831723787993077  
                        
 1.341141141141141E9    -2.583749482674079E1   9.837921348097935E1  -4.777276803333217E1  -1.186351234182417E2  -3.628463802338531E1  -4.929183994209618E1  -3.270204638214569  -4.467994690414499E1  
                        -4.783220792288103E1  -1.164075701664282E2  -2.361132680690774E1  -1.246232884017207E1  -3.169012262137520  -4.467944024244785E1  -4.074306529268903E1   1.440023342929995E2  
                        -3.631485005419308E1  -4.906451255265101E1  -3.190240236160416  -4.561186823070874E1  -2.328814092151923E1   1.087572099831904E2  -4.777770741515446E1  -1.143478748412453E2  
                        -3.287224986683873  -4.383385497592147E1  -4.076202924307946E1   1.440958713471178E2  -4.777378842505600E1  -1.133121387176742E2  -2.555427378735256E1  -5.270181341224658  
                        
 1.411201201201201E9    -2.611514135492112E1   6.255330280467506E1  -4.724574582061267E1   3.187313932266063E1  -3.581616718256137E1  -9.448900127661131E1  -3.375564927082481   1.066067940829753E2  
                        -4.720810569820718E1   3.227556250637728E1  -2.809235076340303E1  -1.496289123014560E1  -3.210809087286693   1.072974257832774E2  -4.034145056553145E1   1.318226703770878E2  
                        -3.588237168107878E1  -9.446013979292484E1  -3.239674209776537   1.059895329663255E2  -2.440155478671537E1   6.356639081885906E1  -4.709744543655716E1   3.409524460543184E1  
                        -3.361260102511615   1.075720749080060E2  -4.035577086687081E1   1.321705965314000E2  -4.708076329256534E1   3.520175989444371E1  -3.103532044209495E1  -4.022946122061741E1  
                        
 1.481261261261261E9    -2.411665534004931E1   4.667440782582917E1  -4.700130074494823E1  -1.760411939625375E2  -3.555078680946272E1  -1.395361686350581E2  -3.497938514308264  -1.024376311936646E2  
                        -4.701648074969965E1  -1.743424466346435E2  -2.858104516615025E1  -5.273614369106750E1  -3.310474886550956  -1.017720037904069E2  -4.002508052806537E1   1.195289306067345E2  
                        -3.556474681582459E1  -1.395595332133717E2  -3.329252130004046  -1.030006805304136E2  -2.236081896262941E1   3.283997954445300E1  -4.653660601223634E1  -1.745388864827328E2  
                        -3.468553518879934  -1.008713024970369E2  -4.000013924649464E1   1.196026795906445E2  -4.655306677111925E1  -1.729542009349327E2  -3.670857638440852E1  -1.034437559936982E2  
                        
 1.551321321321321E9    -2.204482815125589E1  -2.719553296022710  -4.583240207853488E1  -2.487995143828193E1  -3.508699626611676E1   1.766612119528247E2  -3.574351475399259   4.931480492106820E1  
                        -4.581965820239896E1  -2.368146052792907E1  -2.908524121365393E1  -6.128406683799486E1  -3.370897851299842   4.963349560686311E1  -3.968333070280451E1   1.072080465772138E2  
                        -3.513662192999882E1   1.765911719799017E2  -3.390192247488926   4.848738835131876E1  -2.174775139931139E1   5.196632552784497E-1  -4.593875579021192E1  -2.324600250307379E1  
                        -3.552897922294657   5.062779695705198E1  -3.965423871935533E1   1.074184312828519E2  -4.589891342184041E1  -2.215411731236927E1  -2.962612592552265E1  -7.608029064074250E1  
                        
 1.621381381381381E9    -2.615550458757293E1  -5.541279101326528E1  -4.522748591149441E1   1.197618828461556E2  -3.460564076598712E1   1.311546195700078E2  -3.639406803217387  -1.589670819247375E2  
                        -4.529096194852952E1   1.213866296895403E2  -3.157217871885637E1  -5.204430891144548E1  -3.465344245392362  -1.588685825685583E2  -3.938852652646459E1   9.448143531340678E1  
                        -3.466553745324196E1   1.315316359909188E2  -3.484638001446503  -1.602920333948853E2  -2.304437556310862E1  -4.857726148028271E1  -4.527641272207769E1   1.271669247121849E2  
                        -3.628837944701255  -1.580438507588610E2  -3.938601209089256E1   9.460943924882970E1  -4.524346486397303E1   1.276552941071096E2  -3.744658117554598E1  -3.265794345053794E1  
                        
 1.691441441441441E9    -2.500197805191120E1  -5.839602529254898E1  -4.577956359441870E1  -8.762110787665871E1  -3.436047092235734E1   8.632724069449563E1  -3.687858162890393  -8.056445657551873  
                        -4.582545645873540E1  -8.643558661261673E1  -3.230984215306285E1  -8.287051147332282E1  -3.513760334158839  -7.392986234691807  -3.913558394519257E1   8.212952065669380E1  
                        -3.443400382534689E1   8.629523157260564E1  -3.577447935204144  -9.040334475987837  -2.315140863146042E1  -8.679996371632406E1  -4.497046334081394E1  -8.095374996204509E1  
                        -3.709761641612264  -6.654595673732655  -3.916366102924396E1   8.202576366187385E1  -4.492938013143075E1  -8.155159917562642E1  -3.496938387388037E1  -1.350238583303894E2  
                        
 1.761501501501501E9    -2.246707711957523E1  -1.177399976860443E2  -4.522116739633900E1   6.988197570963028E1  -3.406013202233797E1   4.271635104963635E1  -3.808992272877177   1.434302615135783E2  
                        -4.523323666469246E1   7.087885132294454E1  -3.290595195708195E1  -6.471148103053318E1  -3.618600099137367   1.440035937865712E2  -3.896253648398014E1   6.944261244114696E1  
                        -3.410709718375059E1   4.217795323830390E1  -3.643119156990921   1.425020468831691E2  -2.447359025729125E1  -1.290309183456030E2  -4.447814378932668E1   6.955060465700922E1  
                        -3.802835814314824   1.446541487284434E2  -3.896431711235145E1   6.965242357836434E1  -4.460690714605036E1   7.165396161570170E1  -3.060389879811822E1  -1.466631120048459E2  
                        
 1.831561561561561E9    -2.686966240117554E1   1.613035555896480E2  -4.439218500265552E1  -1.412768117300176E2  -3.357359993136963E1  -2.495122910765392  -3.890885612219304  -6.518005191282119E1  
                        -4.437408110782373E1  -1.396426264252749E2  -2.877082955725759E1  -6.506475838522974E1  -3.720884659809381  -6.444586376448298E1  -3.877827063397357E1   5.774417535849746E1  
                        -3.359497865604688E1  -2.982134973655087  -3.706428042654546  -6.590015864371789E1  -2.552296908099498E1   1.486823373058996E2  -4.396491631128241E1  -1.404811201095643E2  
                        -3.899922096726812  -6.385042383749238E1  -3.877546395431245E1   5.774725094848563E1  -4.398915472110978E1  -1.384869508614615E2  -3.489074886834334E1  -1.423585057706058E2  
                        
 1.901621621621621E9    -2.757958283193262E1   1.522086467075573E2  -4.485632522393701E1   1.143942795384910E1  -3.342662028057912E1  -4.768142320386745E1  -3.979833767808502   8.616680459905089E1  
                        -4.482889680431980E1   1.244668133585160E1  -2.743815871130021E1  -9.705095015547919E1  -3.797034639091264   8.678805083513795E1  -3.853759801818644E1   4.606711859432301E1  
                        -3.345595764820546E1  -4.795529206015066E1  -3.818654328842549   8.548215114574362E1  -2.301306925178439E1   1.099568516043834E2  -4.351205043539571E1   1.372227401300065E1  
                        -3.974239314311121   8.753071418189032E1  -3.856187373928965E1   4.598143290347483E1  -4.343073031691059E1   1.512548482244439E1  -2.983016019937724E1   1.383500308480379E2  
                        
 1.971681681681682E9    -2.240914549729238E1   9.444213844891787E1  -4.400925730899551E1   1.678603934680157E2  -3.317532284694322E1  -9.180828741419006E1  -4.122638757048262  -1.222898393384849E2  
                        -4.398856642153104E1   1.685685576780034E2  -2.875358803927603E1  -1.323844475781501E2  -3.840140313591621  -1.214530248958955E2  -3.828941592443335E1   3.385639383389005E1  
                        -3.318716109177759E1  -9.193853547370031E1  -3.875494972068560  -1.230216882706716E2  -2.186390942640465E1   6.310643333971550E1  -4.307338701625549E1   1.655611939802710E2  
                        -4.085409591977138  -1.210282026966473E2  -3.831917159308794E1   3.432317078961482E1  -4.305821242729128E1   1.665263890611333E2  -2.845538803464857E1   1.544210525556336E2  
                        
 2.041741741741742E9    -2.099750213323044E1   2.542857598293923E1  -4.228665224035650E1  -4.260240634073799E1  -3.265420473469676E1  -1.359639569311526E2  -4.142371402170120   2.930607782720811E1  
                        -4.234987843369004E1  -4.211422294106011E1  -3.455388395448679E1  -1.384429156874125E2  -3.929850367063180   3.013708486951876E1  -3.796463621726730E1   2.207624030745689E1  
                        -3.268443357284619E1  -1.366252230710041E2  -3.948102007889309   2.845402921480856E1  -1.972001672552158E1   2.223816107537700E1  -4.223913497361645E1  -4.416664627607260E1  
                        -4.185277458918946   3.075499818836584E1  -3.804234109689426E1   2.244903337681895E1  -4.228276937685388E1  -4.345656011394841E1  -2.979720736969748E1   1.608283453298988E2  
                        
 2.111801801801802E9    -2.152290279748447E1  -1.040001107637663  -4.207564918307937E1   1.054280181489288E2  -3.241998156650848E1   1.785356248783649E2  -4.285300458171525  -1.793469666089046E2  
                        -4.199477298069819E1   1.061748161825690E2  -3.282113963290470E1  -1.494922823407624E2  -3.959166274674500  -1.786296282797770E2  -3.763876967558721E1   9.380233455647346  
                        -3.241826895770917E1   1.781448330976442E2  -4.005906229802468  -1.799746658056432E2  -2.091447201375568E1  -5.657427501157438  -4.184274985158267E1   1.035741240333329E2  
                        -4.228725215308463  -1.777489103643978E2  -3.762972013713866E1   9.841776031534980  -4.184101737078536E1   1.055505896649775E2  -2.752127009398062E1   1.291975359443891E2  
                        
 2.181861861861862E9    -1.939636358554371E1  -3.046974927492943E1  -4.187230474047076E1  -1.028773942463680E2  -3.216830977834435E1   1.342764131739431E2  -4.386109887212259  -2.801260622728359E1  
                        -4.183592910901950E1  -1.014207322733637E2  -3.761010497503786E1  -1.477037951320009E2  -4.003364376295242  -2.742745547388181E1  -3.742055012817924E1  -3.556685919472678  
                        -3.225046692098731E1   1.342968760210703E2  -4.084137912611855  -2.864598298992815E1  -2.075938134763553E1  -4.282501044721939E1  -4.142040736005372E1  -1.046944636632427E2  
                        -4.401630021540248  -2.631665132766807E1  -3.748310612769628E1  -3.182443255473023  -4.147258585457350E1  -1.038041485002606E2  -2.480504296269125E1   9.829829883238770E1  
                        
 2.251921921921922E9    -1.940639431813986E1  -8.161497685533207E1  -4.075409966987367E1   4.761245571320071E1  -3.181772346301166E1   9.012701212951679E1  -4.478412676057300   1.234570201822844E2  
                        -4.074405597150598E1   4.895015469326381E1  -3.777149128410974E1   8.689652244837535E1  -4.093600232940918   1.249710364087150E2  -3.734137804083012E1  -1.542851960751254E1  
                        -3.181091550022662E1   9.033542115729334E1  -4.145186307069790   1.232643351705741E2  -2.158362183542742E1  -6.677897708875850E1  -4.132661929987467E1   4.556251203233427E1  
                        -4.494031708841639   1.254023057326338E2  -3.727720116158860E1  -1.556801866740862E1  -4.130883567744854E1   4.762493679412983E1  -2.608985272724307E1   9.223411928576853E1  
                        
 2.321981981981982E9    -2.290503048244150E1  -1.173056202621816E2  -4.055870827609171E1  -1.655422118273963E2  -3.137268254607913E1   4.496950724539589E1  -4.599889608401137  -8.478960784475335E1  
                        -4.053699062381593E1  -1.635862487345713E2  -4.005829632830961E1  -1.330488163854272E2  -4.157883255744560  -8.378909988449424E1  -3.712822036025991E1  -2.896016502950964E1  
                        -3.143331643820716E1   4.500786656971509E1  -4.139390364475552  -8.547028264303860E1  -2.585249825525582E1  -1.182566657731840E2  -4.062351391258927E1  -1.647849202838744E2  
                        -4.575727647576771  -8.312270622682051E1  -3.711626996335341E1  -2.912680082158217E1  -4.059416110085073E1  -1.628431827450906E2  -2.703943848045977E1   7.171304292660956E1  
                        
 2.392042042042042E9    -2.530600691066929E1  -1.309879638547897E2  -4.092657807079370E1  -1.550016908550600E1  -3.134387468218750E1  -1.194266536555582  -4.682033888880581   6.678632392845557E1  
                        -4.094315414117413E1  -1.403301341154837E1  -3.492121310746136E1  -5.382441827563181E1  -4.181180930993064   6.736163098480118E1  -3.708213461434168E1  -4.148634517023861E1  
                        -3.138987831709391E1  -1.082925156644021  -4.233553035331483   6.557250610753383E1  -2.905338225398174E1  -1.210688141366181E2  -4.110894144655347E1  -1.573577851552649E1  
                        -4.696942094893699   6.838934638012547E1  -3.702443130224182E1  -4.150645892319817E1  -4.096007887020231E1  -1.415907333243966E1  -2.498703406570317E1   4.508050438386315E1  
                        
 2.462102102102102E9    -2.467416703440352E1   1.453536132961544E2  -4.019235202181395E1   1.400924551620787E2  -3.098391598288873E1  -4.433631238132805E1  -4.836985094128099  -1.414370321156215E2  
                        -4.015805537462273E1   1.413223240633346E2  -3.547436236136404E1  -1.285580271078975E1  -4.217712744038761  -1.409349166137223E2  -3.692310229962338E1  -5.356633003229201E1  
                        -3.106656307407294E1  -4.456509739046977E1  -4.297664431651622  -1.432172636399480E2  -3.467619486801658E1  -1.583305118513435E2  -4.052011368695971E1   1.356502896574895E2  
                        -4.832212109310558  -1.395435137283642E2  -3.698700667648532E1  -5.333046451006251E1  -4.061403690587689E1   1.374989455805512E2  -2.170748889533124E1   5.647834796101980E1  
                        
 2.532162162162162E9    -3.125954714385353E1   1.754620988087030E1  -3.960296398597158E1  -7.525907409737893E1  -3.055872220970237E1  -9.006455834491496E1  -4.882774807389080   1.019742377585030E1  
                        -3.960193742873344E1  -7.397401680029608E1  -4.329789954431985E1   1.379503476355386E2  -4.346412598683012   1.071401618907831E1  -3.679610056935542E1  -6.581048261496520E1  
                        -3.061280434737419E1  -9.061023532770324E1  -4.330232079113561   8.580948308103368  -3.158694149443078E1   5.430203643285494E1  -4.010994755287040E1  -7.110156308369312E1  
                        -4.920988188395307   1.228293121610738E1  -3.680347100761393E1  -6.593285254762725E1  -4.016534469854786E1  -6.953520024775946E1  -2.253496514192840E1   1.382061703302378E1  
                        
 2.602222222222222E9    -3.227442289052063E1   1.720887590817867E1  -3.965284372206084E1   7.670267185991460E1  -3.044143959227245E1  -1.360942571205679E2  -4.988521963261029   1.622227121289872E2  
                        -3.960005535580978E1   7.856857026382384E1  -3.245703785338672E1  -6.429227399405852E1  -4.319297552472389   1.621220043815300E2  -3.663341253030745E1  -7.734360453554778E1  
                        -3.047719558821639E1  -1.370589642280281E2  -4.420384045164941   1.598994350850254E2  -4.181818656877466E1  -2.747482390589520E1  -4.019916977838039E1   7.477063277272798E1  
                        -5.070156291835658   1.638858425320422E2  -3.663693279386227E1  -7.736715427865090E1  -4.013784550615248E1   7.707030688128296E1  -2.140588305366328E1   3.647451818381326  
                        
 2.672282282282282E9    -2.910589842419069E1  -2.107000413682937E1  -3.915811292679826E1  -1.337152869678145E2  -3.030622966152343E1   1.794086165757436E2  -5.074649438059858  -4.576362555431422E1  
                        -3.915527564389608E1  -1.321420023428881E2  -3.062046418191714E1  -8.886549571696278  -4.403539385555445  -4.624432293203312E1  -3.638501057909741E1  -8.957715528953195E1  
                        -3.022499710033541E1   1.791922381394344E2  -4.468566334127601  -4.887979959850521E1  -3.155563954350494E1   1.620299565971667E1  -3.985141995345185E1  -1.302746541417649E2  
                        -5.071556170918920  -4.375666319006636E1  -3.641998752244101E1  -8.954445788339048E1  -3.988871861027542E1  -1.279040697997565E2  -2.082637094779746E1  -1.654270026702150E1  
                        
 2.742342342342342E9    -2.941373066399792E1  -7.349732622724872E1  -3.850257516818171E1   1.546148832149780E1  -2.985356194107785E1   1.341079094010629E2  -5.197839265352457   1.060626282278898E2  
                        -3.839367835036115E1   1.797108454995878E1  -3.159418633918052E1  -5.654464986867779E1  -4.427941773886889   1.050429137590249E2  -3.619534566248549E1  -1.015432644755897E2  
                        -2.997403582183248E1   1.336574393035249E2  -4.515839834237257   1.024782215167972E2  -3.313912270219331E1  -2.468523516356503E1  -3.941982159722632E1   1.990982352631442E1  
                        -5.166140693024505   1.081952434285896E2  -3.621507279274937E1  -1.018568045895549E2  -3.935198972661727E1   2.097215567282632E1  -2.247188461821625E1  -2.494788978377166E1  
                        
 2.812402402402402E9    -3.333682501438831E1  -1.093130253417136E1  -3.835148394650842E1   1.631453143826022E2  -2.983347983110504E1   8.816533950898761E1  -5.236577735022938  -1.016873072354926E2  
                        -3.829770627476119E1   1.648279138444835E2  -2.726949316679381E1  -4.809504019131742E1  -4.534282709773129  -1.034940872558668E2  -3.595060693075111E1  -1.145715926944680E2  
                        -2.990963738527602E1   8.824416279357168E1  -4.575372320028608  -1.061036887075859E2  -2.483130966155215E1  -9.197802645470818  -3.933448428924395E1   1.692154952079385E2  
                        -5.184371351326029  -9.991324574359355E1  -3.597162556560689E1  -1.141670406277166E2  -3.929448791669034E1   1.715956972705888E2  -2.180146182138205E1  -3.628750486314976E1  
                        
 2.882462462462462E9    -2.579077779462700E1  -2.098210346726838E1  -3.841276375512490E1  -4.795160925238237E1  -2.957316217256716E1   4.359109030008347E1  -5.230240463921957   5.009378733593845E1  
                        -3.838834353188054E1  -4.594453324651371E1  -2.984955564220536E1  -8.859284951512615E1  -4.570792329551551   4.800297134135771E1  -3.581611430233177E1  -1.272781494977210E2  
                        -2.959827230647382E1   4.299794691070866E1  -4.613539748781298   4.520339575711422E1  -2.725719660114848E1  -1.731974155748755E1  -3.867071228228459E1  -4.179821087090846E1  
                        -5.169445519459472   5.201327038499864E1  -3.583345589207792E1  -1.269642470374199E2  -3.852769889277554E1  -3.948202005672507E1  -2.159508732811777E1  -5.473267838659220E1  
                        
 2.952522522522522E9    -2.620811582474215E1  -5.434454114768215E1  -3.816916928712447E1   1.041063197866027E2  -2.949489281532093E1  -7.887840286731634E-1  -5.206163274305825  -1.581007794838720E2  
                        -3.815797849857899E1   1.062158336654179E2  -2.519766034876979E1  -8.480281094930403E1  -4.652076043394850  -1.604187531527717E2  -3.566222558991003E1  -1.398189582226502E2  
                        -2.953194023618231E1  -1.136428129077542  -4.723967564568308  -1.635517354061346E2  -2.175223845230073E1  -5.517896509127908E1  -3.904677132591205E1   1.076526113847678E2  
                        -5.242432182539635  -1.557815345721404E2  -3.571017322080062E1  -1.396999741528916E2  -3.895827686565425E1   1.102872764745289E2  -2.153625590593099E1  -4.885389554273218E1  
                        
 3.022582582582583E9    -2.216787089614651E1  -6.576128392098723E1  -3.791712813937595E1  -1.094982541509375E2  -2.928269610749556E1  -4.606433725292660E1  -5.235051930415740  -6.665690271016048  
                        -3.792136575270246E1  -1.075910237399301E2  -2.483931802804614E1  -1.063606302972634E2  -4.703834877288598  -9.106016722858907  -3.549900730692710E1  -1.527926478168122E2  
                        -2.941544178862053E1  -4.672701828745944E1  -4.810447831738076  -1.186455040544072E1  -2.067458005544199E1  -8.213484362419231E1  -3.881559103311785E1  -1.016152167313554E2  
                        -5.210128328686061  -4.412396561923053  -3.555567488241975E1  -1.532572623828111E2  -3.887923615866648E1  -9.937248824368569E1  -2.164268673768056E1  -7.173601177551885E1  
                        
 3.092642642642643E9    -1.908044737417830E1  -1.115730942682419E2  -3.867403026757947E1   3.714875957040073E1  -2.931186305019753E1  -9.209462987608630E1  -5.292159586564279   1.453337333444341E2  
                        -3.878056394388739E1   3.977433457396299E1  -2.805749891805311E1  -1.278019531608221E2  -4.754535729647731   1.424032613135494E2  -3.556166030489740E1  -1.653493729710013E2  
                        -2.937050267304556E1  -9.227275249205552E1  -4.818750278121199   1.394559578382024E2  -1.988612477934303E1  -1.040824768398237E2  -3.890044289790182E1   4.759319708284893E1  
                        -5.305203790928555   1.478982929546287E2  -3.552639297980825E1  -1.653394512622102E2  -3.870710266989849E1   4.968816121384284E1  -2.032422394123100E1  -1.010909012257812E2  
                        
 3.162702702702703E9    -2.307593892658300E1  -1.481992460846620E2  -3.858184014029951E1  -1.667011257304404E2  -2.913836305420614E1  -1.356403949585420E2  -5.287548279808511  -6.305516335423124E1  
                        -3.868277532664242E1  -1.639962246401687E2  -2.329444059665229E1  -1.443209464650037E2  -4.821267218202167  -6.626711930574624E1  -3.544390110945318E1  -1.772561001582745E2  
                        -2.924581481752276E1  -1.362034560412008E2  -4.920812212741279  -6.877030070784888E1  -2.008489692808128E1  -1.408653103434591E2  -3.874279478638004E1  -1.624437867972285E2  
                        -5.280332085448607  -6.066587075468483E1  -3.541460526238963E1  -1.774372716464637E2  -3.873503771052366E1  -1.603016328624228E2  -2.310431950808306E1  -1.000491027163312E2  
                        
 3.232762762762763E9    -2.145285323611725E1  -1.651079078895382E2  -3.819577733315301E1  -1.941948467517642E1  -2.893295173895567E1   1.783855365138888E2  -5.293225221471325   8.809866832180343E1  
                        -3.819722675964689E1  -1.612918732402123E1  -2.384674069745228E1  -1.599924607175494E2  -4.888729510215059   8.533123854568190E1  -3.540008212285466E1   1.700916188677875E2  
                        -2.904160566877668E1   1.781778507229783E2  -5.023655990233590   8.223162267415616E1  -2.020343095761913E1   1.764265240551870E2  -3.906852453898278E1  -1.193944611411486E1  
                        -5.329041730806731   9.106429921080702E1  -3.545523634694283E1   1.700005291986717E2  -3.902331186741073E1  -1.041235483801987E1  -2.615856189724503E1  -1.217945612535814E2  
                        
 3.302822822822823E9    -2.235607718236807E1   1.307067924592465E2  -3.855054714137210E1   1.310012713323957E2  -2.875043520277136E1   1.332322865921071E2  -5.341066909206476  -1.202346535059173E2  
                        -3.849618751647111E1   1.333643633351018E2  -3.062964957880234E1   1.751319660675580E2  -4.956239255991320  -1.233305460848443E2  -3.532530554784999E1   1.581586411963991E2  
                        -2.883154805916907E1   1.330470990805859E2  -5.041310395175470  -1.260728219054832E2  -2.350503593020141E1   1.441179153610201E2  -3.846271311513693E1   1.407301222909312E2  
                        -5.347910521934512  -1.175425239758842E2  -3.535367707594734E1   1.576127111888149E2  -3.843353835444680E1   1.427049514785401E2  -2.430625593652862E1  -1.378513526899172E2  
                        
 3.372882882882883E9    -2.376167786416955E1   6.509861164838777E1  -3.840453147238691E1  -7.695423705904732E1  -2.876543145750175E1   8.827053214337632E1  -5.395047212411299   3.102312136328194E1  
                        -3.847949110247201E1  -7.407974335646985E1  -2.432306448834758E1   1.774395287160863E2  -4.951224457783511   2.837874593315477E1  -3.520183858268947E1   1.459731425304977E2  
                        -2.884495799768371E1   8.831713971468777E1  -5.134803050255111   2.547578833569800E1  -2.091545137328602E1   6.468050160950216E1  -3.891452890558939E1  -7.006741572495005E1  
                        -5.376733844249786   3.376979985493526E1  -3.525692705359493E1   1.451396830892608E2  -3.878783141185112E1  -6.773916530508805E1  -2.530096519550553E1  -1.642580937158062E2  
                        
 3.442942942942943E9    -2.200425346838213E1   2.245663277222212E1  -3.794582116634224E1   7.286338747595285E1  -2.853912081289853E1   4.335956894132637E1  -5.439791602863073  -1.774429930746728E2  
                        -3.797688868704412E1   7.614008559176688E1  -2.680484642072152E1   1.658363094359543E2  -5.043654422527684   1.796740932326467E2  -3.509273274377396E1   1.332261959832464E2  
                        -2.856540308503097E1   4.366834306217952E1  -5.212851890529943   1.765090948022870E2  -2.096763337527370E1   2.146911795168394E1  -3.849214680841691E1   8.231017565361118E1  
                        -5.485485784810005  -1.750276992549246E2  -3.513686787561055E1   1.324733351061008E2  -3.838605598270750E1   8.452220176419790E1  -2.790026262905409E1  -1.748319430853896E2  
                        
 3.513003003003003E9    -1.867707446803241E1  -2.498131648447991E1  -3.793704439927631E1  -1.379824646491418E2  -2.839148900431476E1  -2.656525728464984  -5.463787888715599  -2.583964159104039E1  
                        -3.783260104045105E1  -1.353201812324557E2  -2.812967243530779E1   1.501856464008346E2  -5.133203696317398  -2.947758887322221E1  -3.499946371082194E1   1.199635083187744E2  
                        -2.859898781834961E1  -2.117983899166882  -5.272782244095587  -3.177540284484979E1  -1.785093396497359E1  -2.046480668783352E1  -3.807617099446284E1  -1.289931417826397E2  
                        -5.483237412370387  -2.315893157946291E1  -3.502206619943030E1   1.199427115828835E2  -3.801246027071925E1  -1.274020550430271E2  -2.595686595708354E1   1.613726803817439E2  
                        
 3.583063063063063E9    -1.649306538965340E1  -6.875378503147287E1  -3.831000693260417E1   1.057135621410827E1  -2.853098815557704E1  -4.698879839049724E1  -5.570334829395218   1.257010202101938E2  
                        -3.827202324662302E1   1.353482030599513E1  -2.468909806454740E1   1.370793781555815E2  -5.298673120651046   1.223669699483310E2  -3.492419415840941E1   1.067751990048471E2  
                        -2.862950181395958E1  -4.655233316619347E1  -5.346853488578251   1.196933447652826E2  -1.607813084364704E1  -6.247973721449221E1  -3.836727643325035E1   1.992911029276005E1  
                        -5.600434944754404   1.283720077228054E2  -3.504264369044140E1   1.068572070750474E2  -3.829828343768783E1   2.156700180687398E1  -2.418038374604949E1   1.393279865738550E2  
                        
 3.653123123123123E9    -1.634255451676461E1  -1.005047095420550E2  -3.816697623528718E1   1.625354236150098E2  -2.836192853236972E1  -9.094231641825418E1  -5.627920607423928  -8.274830722511327E1  
                        -3.819476174460539E1   1.647231703618010E2  -2.606950386196704E1   1.220784421488186E2  -5.340609241192303  -8.617915804770595E1  -3.492707542568301E1   9.450663610038727E1  
                        -2.849271662457368E1  -9.030151509862071E1  -5.362589954297016  -8.847198745370390E1  -1.698185446701688E1  -1.003206110693882E2  -3.848255584509423E1   1.719398167230775E2  
                        -5.672908386157893  -8.031076178285989E1  -3.499674429824959E1   9.422349079771158E1  -3.848994087135919E1   1.743563621821126E2  -2.513179418363215E1   1.311753018485048E2  
                        
 3.723183183183183E9    -1.594823789635518E1  -1.316745256691121E2  -3.821229636636439E1  -4.954135291824720E1  -2.822070673036576E1  -1.363132043370353E2  -5.664536479586526   6.925126375276146E1  
                        -3.820020010471432E1  -4.686436137813625E1  -2.646463472248648E1   8.312028241749599E1  -5.460986030549417   6.554663693016266E1  -3.509131071964193E1   8.176103732630011E1  
                        -2.825969691906398E1  -1.361988169528103E2  -5.521159818917681   6.245326738967823E1  -1.528353304288617E1  -1.275646220133443E2  -3.804830925806663E1  -4.053494042954540E1  
                        -5.737293725217783   7.141655062577041E1  -3.511912315411338E1   8.073342411890883E1  -3.801545063873855E1  -3.816461469237169E1  -2.400477385399733E1   1.150677855556223E2  
                        
 3.793243243243243E9    -1.624351767063765E1  -1.701073423477697E2  -3.850226073906306E1   1.002197624653693E2  -2.824208563623606E1   1.794803538446894E2  -5.741780490278240  -1.389767215934954E2  
                        -3.856844794004567E1   1.022757941051418E2  -2.560860460105870E1   7.639727602185238E1  -5.446663242563840  -1.424185233799134E2  -3.520110106597768E1   7.049457287002852E1  
                        -2.830737761403178E1   1.797875133248918E2  -5.521516738925613  -1.448503259976560E2  -1.621879790113452E1  -1.713203276389960E2  -3.914068592898165E1   1.100981284756907E2  
                        -5.794567570020797  -1.367537048463605E2  -3.517861145566105E1   7.013070382480341E1  -3.906501119765912E1   1.129869226000296E2  -2.294312785889920E1   8.153403283395446E1  
                        
 3.863303303303303E9    -1.879016023592400E1   1.387269549671883E2  -3.943382400362528E1  -1.069053640862049E2  -2.808071488160002E1   1.361682396593130E2  -5.795392009649208   1.281084480422777E1  
                        -3.933637705146815E1  -1.036593128798191E2  -2.751197833873203E1   5.423504258513516E1  -5.477403461185167   9.070095298785073  -3.508353582138488E1   5.890396581849679E1  
                        -2.815986066915049E1   1.363205036899306E2  -5.530894752602180   5.980015179165517  -1.875387228162846E1   1.507315036758187E2  -3.895561785446516E1  -9.396584762644862E1  
                        -5.749004901830096   1.528304482293460E1  -3.508932867055580E1   5.799183058548530E1  -3.894607745310523E1  -9.220919287252336E1  -2.310078030266591E1   8.715621253279488E1  
                        
 3.933363363363363E9    -1.905863449395966E1   9.861056246197381E1  -3.904187042420302E1   4.464333687230231E1  -2.788685322103597E1   9.045792437579877E1  -5.828527866818471   1.640617397481769E2  
                        -3.909335307817316E1   4.717410303339209E1  -2.620672351746249E1   4.478687555865199E1  -5.560092836504412   1.605094161475143E2  -3.516387129757252E1   4.685714644719865E1  
                        -2.800539081141200E1   9.103857037865875E1  -5.635103149373190   1.576861595268157E2  -1.810501944662639E1   1.042992746601587E2  -3.911778596306992E1   5.502127547824035E1  
                        -5.845962400150947   1.669645047406380E2  -3.512765888187122E1   4.668715636185343E1  -3.888745700195535E1   5.724576762009789E1  -2.353922633963106E1   6.272230681132483E1  
                        
 4.003423423423423E9    -1.868932660798894E1   4.210613313245110E1  -3.919880092485262E1  -1.652267341419499E2  -2.791085325652477E1   4.576624080796965E1  -5.880326491143391  -4.442621168065983E1  
                        -3.919392331337483E1  -1.617256574297454E2  -2.803195837572815E1   4.588202386125878E1  -5.515611502004420  -4.779799056979193E1  -3.505053651936754E1   3.555606635936674E1  
                        -2.789237909952306E1   4.630633623563457E1  -5.650482154582065  -5.072398629266039E1  -1.998668746151677E1   4.499003295723126E1  -3.927406282376403E1  -1.521954711007354E2  
                        -5.858210678885598  -4.139010755426762E1  -3.501659314302032E1   3.520999980885873E1  -3.922697074104962E1  -1.499630263412234E2  -2.335878414080521E1   5.764137646708564E1  
                        
 4.073483483483483E9    -1.812654076121770E1  -1.103371801577076E1  -3.907664943224345E1  -1.322809266298750E1  -2.762625002279821E1   9.313129492642054E-1  -5.891810969272765   1.072078150770152E2  
                        -3.907597632173039E1  -1.061639958652788E1  -2.567175285601632E1   1.050362187974384E1  -5.461833432321236   1.034141587217160E2  -3.489115846308339E1   2.284173583162720E1  
                        -2.777803310174373E1   1.360236358918360  -5.681460948806355   1.006866175515323E2  -1.902552222007644E1  -7.670003267668461  -3.891440400250473E1   1.003069413505031  
                        -5.950966453682178   1.103030725786976E2  -3.492127500871242E1   2.264226734057631E1  -3.877947479509243E1   3.885797805603888  -2.100495554770761E1   4.331213846430109E1  
                        
 4.143543543543543E9    -1.827604413457554E1  -5.924703735822435E1  -3.921750834213552E1   1.398332519942271E2  -2.765283798231731E1  -4.341968283346713E1  -5.962038526389152  -1.012936119449935E2  
                        -3.923647827616916E1   1.428008737480681E2  -2.748119578324068E1   3.293029977509777E1  -5.557600483871701  -1.050397939502263E2  -3.483230398733497E1   1.047970227128302E1  
                        -2.772287107533030E1  -4.241305268834272E1  -5.743678499902284  -1.075910448349362E2  -1.782576307227850E1  -5.424953318461705E1  -3.909779518394377E1   1.507032791079569E2  
                        -5.934328138308908  -9.806224636701445E1  -3.482749232950253E1   1.066899618368818E1  -3.892449364207930E1   1.550900137575223E2  -2.355847278094540E1   3.508755487025075E1  
                        
 4.213603603603603E9    -1.742090667314754E1  -9.972405476954272E1  -3.930256266075004E1  -6.973674917770221E1  -2.747055369862824E1  -8.775935683849048E1  -6.000563495441929   5.022730606053921E1  
                        -3.927431874806594E1  -6.666657586408178E1  -2.679553197567307E1   1.236104700631099E1  -5.728462631220074   4.671281613750578E1  -3.478530809673087E1  -2.096794486401600  
                        -2.762198980820498E1  -8.715214935511597E1  -5.803615493290836   4.404131337911251E1  -1.673051055240649E1  -9.020635118760436E1  -3.889189131209881E1  -5.787121482070496E1  
                        -6.038111640545913   5.355717504522233E1  -3.478812746058938E1  -2.011868046555047  -3.886279592470718E1  -5.532194118195715E1  -2.641555398010215E1   3.198053037860504E1  
                        
 4.283663663663663E9    -1.668540193930293E1  -1.385387624654577E2  -3.969005279311069E1   7.796280738098362E1  -2.752116693555193E1  -1.323065764796038E2  -6.054020057266619  -1.581589362742475E2  
                        -3.964140861402875E1   8.092593523819191E1  -2.267783755280093E1  -1.423221482830454E1  -5.783074868096002  -1.617908741216116E2  -3.490048219506355E1  -1.426539464762548E1  
                        -2.761223558641726E1  -1.317972001809917E2  -5.863619160733991  -1.642603298878061E2  -1.578375867395563E1  -1.294745569717145E2  -3.939724231292374E1   9.042280072309765E1  
                        -6.097079828714019  -1.546638490141313E2  -3.487948850602639E1  -1.408938993403416E1  -3.921025309617255E1   9.291478309340992E1  -2.248845369574477E1   2.721446485696136E1  
                        
 4.353723723723723E9    -1.700696146957798E1   1.777317062691380E2  -4.061119801666990E1  -1.327014999061357E2  -2.745487578214297E1  -1.758913894612699E2  -6.146515407945395  -5.829929639286957  
                        -4.053419056114928E1  -1.299403548127203E2  -2.430093874772252E1  -2.122339505138051E1  -5.909558017565102  -1.017333634157094E1  -3.493460510306143E1  -2.547517664364381E1  
                        -2.760363453960900E1  -1.754761401552856E2  -5.931089446130867  -1.253990451253593E1  -1.699171795805854E1  -1.649597180905068E2  -3.990285571239877E1  -1.162525020664017E2  
                        -6.180281882533444  -2.652459337907315  -3.494364193005978E1  -2.578297955683552E1  -3.975086409355297E1  -1.145311043839122E2  -2.045947278522443E1   1.091793356893798E1  
                        
 4.423783783783783E9    -2.046486092121560E1   1.490198216793384E2  -4.089249286418654E1   2.614612725689789E1  -2.717236353310889E1   1.395276945051902E2  -6.129591715994565   1.454600435707682E2  
                        -4.080859703537773E1   2.939188353769745E1  -2.401792519172928E1  -4.281888979233565E1  -5.939596144296357   1.417199394250876E2  -3.494880025633380E1  -3.780159895439500E1  
                        -2.727743791881722E1   1.402639706553250E2  -5.972021080418069   1.390364387156661E2  -1.746018943809890E1   1.619886974094924E2  -3.969434208446425E1   3.381656906180411E1  
                        -6.115714069643826   1.489218267902010E2  -3.489381125764877E1  -3.771803733059727E1  -3.952311445565759E1   3.653032817719629E1  -2.665856461839772E1  -2.388374556462928  
                        
 4.493843843843844E9    -2.105809472591426E1   1.039250983001370E2  -4.107365279924464E1   1.752647512554762E2  -2.711156165466457E1   9.485265071976043E1  -6.203716222665580  -6.294569234880004E1  
                        -4.116506478425221E1   1.788656827065198E2  -2.529594223585919E1  -8.006184557775869E1  -5.997003896829698  -6.663821010872735E1  -3.498575642389231E1  -4.913459118816088E1  
                        -2.721140150752796E1   9.568507363755280E1  -5.985288173334373  -6.951322555313460E1  -1.924153873506338E1   1.272510722212457E2  -4.021840967579239E1  -1.718392815206489E2  
                        -6.210571379895724  -5.920890732286845E1  -3.490660087382214E1  -4.893519692454181E1  -4.007535557992588E1  -1.687658761131929E2  -2.508360046521536E1  -1.472678764127959E1  
                        
 4.563903903903904E9    -2.285743260963278E1   3.890981264369322E1  -4.151610972258768E1  -3.103993647525282E1  -2.703492385501873E1   4.993086888261023E1  -6.246653049098600   8.862173084413962E1  
                        -4.155775368763295E1  -2.733293204356935E1  -2.635694307287109E1  -7.041908878289397E1  -5.946128113156070   8.506442967113156E1  -3.487975488396615E1  -6.017564638509147E1  
                        -2.711424407790306E1   5.106729814094226E1  -6.002406811923247   8.215695892201383E1  -2.363330647859296E1   7.541675646072980E1  -4.061736239110647E1  -1.651107782394884E1  
                        -6.224183762055536   9.228495208138362E1  -3.484497024120839E1  -6.023597222557518E1  -4.048953878483363E1  -1.367455993153242E1  -2.323279821835198E1  -2.159634430519183E1  
                        
 4.633963963963964E9    -2.549977707566903E1  -3.598250042309981E1  -4.141959128084303E1   1.300948788939305E2  -2.693939248567690E1   5.803121842993597  -6.256866196809107  -1.195633685667987E2  
                        -4.156475944418087E1   1.336138523816495E2  -3.043244452362206E1  -5.316361192951948E1  -6.099992006151752  -1.238603347509024E2  -3.474333602598311E1  -7.207151428713237E1  
                        -2.696223555489894E1   7.227362100733018  -6.086649218148717  -1.260638523461454E2  -2.579597596354564E1   1.399624580703426E1  -4.026838347655306E1   1.393439102070992E2  
                        -6.274446514363577  -1.163003331893604E2  -3.466996578426757E1  -7.252420768766085E1  -4.019303353250966E1   1.420558963252299E2  -2.536636092078909E1  -1.455252802679239E1  
                        
 4.704024024024024E9    -2.389808882305033E1  -7.059650215731276E1  -4.065014770107908E1  -7.801612588982945E1  -2.680236599320191E1  -3.996867040021029E1  -6.325304404629372   3.177843864144007E1  
                        -4.073808264362313E1  -7.286037427394892E1  -2.461270262049414E1  -8.862072755830820E1  -6.132278001440221   2.760842975549614E1  -3.468773977452303E1  -8.448522206328757E1  
                        -2.679497148941967E1  -3.841595183184987E1  -6.188731472817878   2.516234203354198E1  -2.276357561354433E1  -3.490893566406577E1  -3.940397163562735E1  -7.269069793946065E1  
                        -6.307834500460107   3.498583922141664E1  -3.460388583455092E1  -8.441073735049780E1  -3.946229976680298E1  -7.043958932049115E1  -2.947807874791910E1  -3.333595305905217E1  
                        
 4.774084084084084E9    -2.069509493096859E1  -1.103725257753432E2  -4.051300900318523E1   6.986621292150984E1  -2.677032437697527E1  -8.411515948568572E1  -6.397309300460983  -1.764811792715479E2  
                        -4.049451109668476E1   7.470139945463578E1  -2.396286164695056E1  -1.157108942216567E2  -6.245906132084801   1.789854264840780E2  -3.460665112857358E1  -9.680764981173081E1  
                        -2.673669286991153E1  -8.328570637977421E1  -6.183216601831787   1.768468063638591E2  -2.213368175411644E1  -8.581830376710246E1  -3.922292304050760E1   8.076582843517512E1  
                        -6.384993173366100  -1.733377964015830E2  -3.453275819124499E1  -9.696350970697660E1  -3.934988535505769E1   8.203406141020155E1  -2.699337864097119E1  -4.642364111015120E1  
                        
 4.844144144144144E9    -2.066629751545318E1  -1.579239498640692E2  -4.113016765392432E1  -1.378814436606492E2  -2.674365760446375E1  -1.280659915216784E2  -6.442762906881614  -2.486544491071042E1  
                        -4.122332084497158E1  -1.335986656958578E2  -2.671792220123519E1  -1.155069302166437E2  -6.345126692499100  -2.954372570454021E1  -3.453158439278560E1  -1.089474261171725E2  
                        -2.669348818555591E1  -1.270966365258535E2  -6.265020042635418  -3.167199947904479E1  -2.136376270004225E1  -1.232096477240987E2  -3.928136917449279E1  -1.282112705662424E2  
                        -6.407862050839565  -2.148446026630199E1  -3.453292257816914E1  -1.093372538251178E2  -3.929344404700776E1  -1.255669957669998E2  -2.408879257242780E1  -3.391929066151503E1  
                        
 4.914204204204204E9    -2.553668743302163E1  -1.753397785305550E2  -4.053556821105809E1   2.072087288941459E1  -2.648810625447922E1  -1.718103193736983E2  -6.449255874447074   1.268111471393701E2  
                        -4.053343192813150E1   2.479141239811748E1  -2.899050764372564E1  -1.328855412815356E2  -6.363494496370633   1.225248838628517E2  -3.453353370144876E1  -1.211996684456726E2  
                        -2.646044611895824E1  -1.710997366864774E2  -6.302828739215019   1.200610955204678E2  -2.179856018847336E1  -1.537968072873384E2  -3.950632041591623E1   2.476554822459221E1  
                        -6.483094822111982   1.301887074816540E2  -3.457476362979539E1  -1.217421993453879E2  -3.952837830797206E1   2.615092211734432E1  -2.901168738513282E1  -1.942616143189560E1  
                        
 4.984264264264264E9    -2.225326148958826E1   1.580503936764826E2  -4.071084253770630E1   1.646749594459254E2  -2.642254529629769E1   1.425289052102639E2  -6.533144880615256  -8.177118717135259E1  
                        -4.067997031444005E1   1.689552692394608E2  -2.655626853991709E1  -1.562509160285297E2  -6.398635801222880  -8.529621900951534E1  -3.466891607909444E1  -1.333830557096335E2  
                        -2.635071944142635E1   1.435330703481232E2  -6.364382021946365  -8.866403646737960E1  -2.082214943456990E1   1.755275247953890E2  -4.005935531874953E1   1.739536749208832E2  
                        -6.536189364487575  -7.820286735068774E1  -3.464433276284797E1  -1.338432682491750E2  -3.971054858489284E1   1.775751630196327E2  -3.131102057021955E1  -1.055220563842444E2  
                        
 5.054324324324324E9    -2.869599900298889E1   1.017034561009557E2  -4.247529633852071E1  -3.740111687907849E1  -2.640517873646311E1   9.830407395878230E1  -6.563862714909912   7.043074788000291E1  
                        -4.242619421612457E1  -3.265222867840018E1  -2.493742802770549E1  -1.509274444152819E2  -6.511749965760214   6.620722926889094E1  -3.473490105098468E1  -1.445708272253116E2  
                        -2.640299325014763E1   9.945595643308340E1  -6.426695027765691   6.315415823149765E1  -2.152580649999403E1   1.384365622113624E2  -4.052416080236405E1  -3.529007225172732E1  
                        -6.558151952705812   7.359764985748041E1  -3.466703686688931E1  -1.449624955114724E2  -4.031121650299734E1  -3.200988566747777E1  -2.824516112329702E1  -3.949102001711059E1  
                        
 5.124384384384384E9    -3.552383478451003E1   1.370027976480441E2  -4.157331721935950E1   1.227402939757800E2  -2.612853351346737E1   5.512889881851881E1  -6.604902798084489  -1.385606211385771E2  
                        -4.153743158394619E1   1.269755140794623E2  -3.650037962426588E1   1.276257456715347E2  -6.482082499552637  -1.420234029266737E2  -3.463776437163945E1  -1.560465203367967E2  
                        -2.614773045314109E1   5.570460535074605E1  -6.477912204871214  -1.454375376692730E2  -2.478997441182439E1   1.510918624208042E2  -4.011516369768921E1   1.300726563973537E2  
                        -6.603225435661647  -1.350074966295733E2  -3.458643437736598E1  -1.566448046749095E2  -4.008356010724246E1   1.342006910865556E2  -2.785369910718777E1  -3.170621815248352E1  
                        
 5.194444444444444E9    -3.327131352038585E1   1.364866927931157E2  -4.064009359741045E1  -8.235713416903415E1  -2.596401288185087E1   9.784807351504815  -6.682128127681517   1.305739265798236E1  
                        -4.065402828464158E1  -7.829395751735216E1  -2.901903854119419E1   1.266629664695071E2  -6.617724321328234   1.011473874869131E1  -3.460644121018686E1  -1.680007762847044E2  
                        -2.590152633722502E1   1.004892241435497E1  -6.560035851311107   6.110673835121342  -2.405611574336803E1   9.761466259757523E1  -3.902297003715113E1  -8.225713963502022E1  
                        -6.672027767549677   1.634581495388170E1  -3.457297214211474E1  -1.682948646880754E2  -3.912556629274087E1  -7.860798840102471E1  -3.222679189662067E1  -8.765068706482197  
                        
 5.264504504504504E9    -3.113103405411501E1  -1.059223577948413E2  -4.078864869187511E1   6.565422863305562E1  -2.602036825735744E1  -3.557768481316539E1  -6.728178504403555   1.646887042107287E2  
                        -4.069756636074933E1   6.937664006139477E1  -3.555051761105655E1  -1.516707431027630E2  -6.624859523403618   1.612839471702602E2  -3.440560764289967E1  -1.797317716197784E2  
                        -2.602067159319518E1  -3.492711454250390E1  -6.573154616734608   1.576392893373447E2  -4.970446002453882E1   1.125443560698904E2  -3.956223837876259E1   7.122273384040952E1  
                        -6.733940856151194   1.682980001135745E2  -3.437531639003340E1  -1.793829304711046E2  -3.966774873304918E1   7.438980928657841E1  -3.240136527139345E1  -8.320772298631059E1  
                        
 5.334564564564564E9    -2.807348592437327E1   1.668744518349663E2  -3.979062289578136E1  -1.344796637718518E2  -2.592839587737164E1  -7.824973867767685E1  -6.813614874963071  -4.337920522311146E1  
                        -3.983267748037520E1  -1.313782074479329E2  -2.921511632178419E1  -8.443036851947326E1  -6.732194815216130  -4.750954231725232E1  -3.435374380697130E1   1.682158086104608E2  
                        -2.588135570890007E1  -7.805180533936408E1  -6.637595489281653  -5.063944812930218E1  -3.177916931777449E1   1.341416086769182E2  -3.919433007318279E1  -1.308126410433746E2  
                        -6.786230361183139  -3.992648602388749E1  -3.433276174152648E1   1.680908588181637E2  -3.918717503072126E1  -1.285337446741447E2  -2.520717041421394E1  -3.468755822281614E1  
                        
 5.404624624624624E9    -3.313063442381888E1  -1.487376350059528E2  -3.848043200597786E1   1.255369967918430E1  -2.556526868186334E1  -1.240818205937916E2  -6.869556024748831   1.078182615231126E2  
                        -3.864207667793270E1   1.564308524398738E1  -3.265595708556037E1   1.489515764071321E2  -6.719756401405393   1.039268412698029E2  -3.429682771316341E1   1.559177036453537E2  
                        -2.556896773763525E1  -1.235119087415902E2  -6.663132159992839   1.008910059793372E2  -3.434237316135201E1  -9.809460396821001E1  -3.809561377374281E1   1.357971416358030E1  
                        -6.874885227714942   1.116584190768190E2  -3.423247847596728E1   1.554282305293809E2  -3.819398313321722E1   1.562562006973586E1  -2.869104781509974E1  -2.536065847958524E1  
                        
 5.474684684684684E9    -2.609433446400880E1  -1.663728986365522E2  -3.873338386738039E1   1.590475068328015E2  -2.569646032175812E1  -1.694341167685720E2  -6.943179645635897  -1.005127163925371E2  
                        -3.883539010764185E1   1.628553094790008E2  -3.032891942193684E1   1.609838980358489E2  -6.831834858052573  -1.037678295701377E2  -3.434636810966730E1   1.435054412440051E2  
                        -2.561471714732582E1  -1.688519751636405E2  -6.720014746564923  -1.074691669488954E2  -2.696918986853826E1  -1.713077439864641E2  -3.883881059751728E1   1.611955012416372E2  
                        -6.948001999675300  -9.661427699012832E1  -3.427601012342107E1   1.424632665676082E2  -3.891684681686709E1   1.621203627687361E2  -3.413436278314357E1  -1.675676755704658E1  
                        
 5.544744744744744E9    -2.891121895557833E1   1.664794083744149E2  -3.973002233710062E1  -4.822161676170135E1  -2.554140863739580E1   1.466185793321156E2  -6.989951545722680   5.115359913733257E1  
                        -3.986279600292048E1  -4.356550877079125E1  -3.315395677955876E1   1.611035795078244E2  -6.874179558084161   4.787392322427162E1  -3.443448839930498E1   1.309668394903896E2  
                        -2.556232386491632E1   1.476605392381505E2  -6.776046036867646   4.400865157859129E1  -3.090655323206406E1  -1.776928707543087E2  -3.936672516425404E1  -4.442111371816843E1  
                        -6.981178842996527   5.538216538876469E1  -3.434593460984469E1   1.308085591324515E2  -3.926625037353652E1  -4.106385647623766E1  -2.708704712012725E1  -4.616085209072436E1  
                        
 5.614804804804804E9    -2.598945501874159E1  -1.743527459244947E2  -3.942361129019204E1   1.066763538167245E2  -2.532770319921509E1   1.017319329863644E2  -7.070174980867428  -1.570998238560113E2  
                        -3.954775969773978E1   1.112413077970683E2  -3.634983149468613E1   8.212581471662760E1  -6.949872888845857  -1.606771616740993E2  -3.453744561824897E1   1.194116952007423E2  
                        -2.537781771519930E1   1.031292238251673E2  -6.873581978644531  -1.641321607999910E2  -2.549222988549599E1   1.692964062453090E2  -3.938909561222175E1   1.081994238856581E2  
                        -7.070292053156821  -1.530838493322633E2  -3.447758839108422E1   1.187846756724134E2  -3.928609889839437E1   1.109280938611705E2  -2.459236447329063E1  -4.609507540104988E1  
                        
 5.684864864864864E9    -2.385291859497981E1   1.409479738887956E2  -3.916433408906935E1  -1.051608615152979E2  -2.518937073771582E1   5.648511658352633E1  -7.122510805003609  -5.316636983957599  
                        -3.926948010828657E1  -1.000509733414301E2  -3.194500828659418E1   7.013220235022654E1  -7.026057446230233  -8.879227312989549  -3.454260654682664E1   1.079011988183913E2  
                        -2.521787451429789E1   5.763872548068072E1  -6.887317357269536  -1.244616166395245E1  -2.453701172176511E1   1.367112947934867E2  -3.942230702425646E1  -1.012846457956876E2  
                        -7.126286927651994  -1.376589062063955  -3.453352049986245E1   1.076508243669623E2  -3.931305713656428E1  -9.734682126798417E1  -2.947570941918470E1  -2.509201175387631E1  
                        
 5.754924924924925E9    -3.293286793223534E1   1.187065894148761E2  -4.011596122750984E1   5.034788494964846E1  -2.528017597193936E1   1.133698813192272E1  -7.211308208253448   1.462944678556894E2  
                        -4.009961839504774E1   5.458543265465590E1  -3.373180607801701E1   1.358953915488979E1  -6.999401679213152   1.420539825038585E2  -3.453415989394457E1   9.672302602395979E1  
                        -2.525371096695636E1   1.291300099173603E1  -6.969915423970875   1.392934317456849E2  -2.506382550921032E1   1.181516121518480E2  -3.904048295135679E1   5.583839723592104E1  
                        -7.158262206225577   1.499356783116267E2  -3.447984173815645E1   9.637495450098804E1  -3.910393153033178E1   5.859561753584467E1  -3.066065361284928E1  -5.499070429145674E1  
                        
 5.824984984984984E9    -2.674713181038685E1   1.215575285218739E2  -3.875628380024473E1  -1.479904052976098E2  -2.507656872626870E1  -3.159803299428436E1  -7.253311115743037  -6.178649971384228E1  
                        -3.870550201927720E1  -1.440291502592208E2  -3.229976764379292E1  -7.204469788001508E1  -7.031312907610415  -6.568623024074591E1  -3.445107568742566E1   8.542051031268302E1  
                        -2.509144981044184E1  -3.075773391406221E1  -6.985057061175482  -6.898455671838961E1  -2.553893140365572E1   1.158778078397339E2  -3.876564832576528E1  -1.479929847458225E2  
                        -7.272261538676384  -5.808684442690614E1  -3.441141466241295E1   8.516507372251276E1  -3.878705126830150E1  -1.450164763058834E2  -2.437885204794366E1  -6.325767489474298E1  
                        
 5.895045045045045E9    -3.276958097967530E1   4.696568938962165E1  -3.752262094512130E1  -4.231785375817312E-1  -2.488644604664306E1  -7.717071650429345E1  -7.381539622160056   8.969144838717914E1  
                        -3.760632244814389E1   3.988924828941280  -3.040780560191715E1  -7.999200872434498E1  -7.118091185499370   8.615581319768046E1  -3.427389292730641E1   7.359478526861045E1  
                        -2.480625377315852E1  -7.594374811368181E1  -7.044950236262815   8.242014617056447E1  -2.782686505907201E1   6.889575596048364E1  -3.774027327018658E1   8.912925525739414E-1  
                        -7.317411471802561   9.382451297272033E1  -3.429456454334551E1   7.330400911008056E1  -3.775830796785532E1   3.770456779674135  -2.372996156781014E1  -5.621815342614781E1  
                        
 5.965105105105104E9    -3.013666878359060E1  -1.518402199710189E2  -3.790780678308114E1   1.467069803711293E2  -2.480185565819617E1  -1.223070540882579E2  -7.377918225049178  -1.187390006518434E2  
                        -3.795166390363998E1   1.512659353994775E2  -3.027878466565162E1  -1.098512178829271E2  -7.161589568165484  -1.225113180663942E2  -3.420460457064957E1   6.156091612780234E1  
                        -2.487379192207084E1  -1.213334873533545E2  -7.109409994999297  -1.259296204155761E2  -3.105682543649674E1   3.255167502851059E1  -3.739590044452441E1   1.508327514585647E2  
                        -7.380248799309229  -1.144210101608345E2  -3.411301125375105E1   6.092323832842463E1  -3.755078136578258E1   1.535586911509963E2  -2.987437457892168E1  -9.906738838258666E1  
                        
 6.035165165165165E9    -2.997678001533966E1  -1.641875218545924E2  -3.748697673555481E1  -6.197071751355972E1  -2.494716065506740E1  -1.666635307962866E2  -7.497199532671909   3.280361265599191E1  
                        -3.749018158625354E1  -5.705650445372424E1  -3.040740364883074E1  -1.601074181492836E2  -7.183930262887867   2.934369896609271E1  -3.417655112980347E1   4.837129771908246E1  
                        -2.482813969451336E1  -1.657837694909972E2  -7.144319494699443   2.539706651129872E1  -3.739390278129539E1   8.141143766380063E1  -3.821351884430304E1  -6.131956353504361E1  
                        -7.431230542183515   3.744900532240705E1  -3.414546397110983E1   4.799213060727168E1  -3.817503792483836E1  -5.764914024791026E1  -2.871134576220080E1  -8.883073173040035E1  
                        
 6.105225225225225E9    -2.628877354626509E1  -1.605204253524304E2  -3.704069125051738E1   8.936200247173338E1  -2.461003828422894E1   1.499460117005034E2  -7.549867572231683  -1.755298906502831E2  
                        -3.701208273335995E1   9.414676534270605E1  -2.627433717858962E1  -1.436895100824650E2  -7.230669916233130  -1.787997697768238E2  -3.428725662369160E1   3.600574220945387E1  
                        -2.460116123100690E1   1.504210708588432E2  -7.215067503796608   1.769451700461267E2  -3.152172779990866E1  -8.903226704086326E1  -3.775297614414936E1   9.460050873390597E1  
                        -7.532698707879297  -1.711058175847742E2  -3.423059193287558E1   3.581736657536363E1  -3.779453713560148E1   9.728999994306494E1  -2.515027093387764E1  -9.321163282763089E1  
                        
 6.175285285285285E9    -2.186064275269743E1   1.436188462464039E2  -3.731172744689748E1  -1.268926306199003E2  -2.455310046799884E1   1.026180038694065E2  -7.655103925994170  -2.350164303416247E1  
                        -3.736966180153249E1  -1.219558134937127E2  -3.174733214169287E1  -1.530093859245867E2  -7.314438768793396  -2.699950789654015E1  -3.443550396897336E1   2.454884206058620E1  
                        -2.451522809015923E1   1.034768544657106E2  -7.276536914435128  -3.139134323362680E1  -2.687445280224073E1   1.692941991571759E2  -3.793696648104793E1  -1.182727295652625E2  
                        -7.650449333732237  -1.918467055688167E1  -3.436561810122696E1   2.390883383520657E1  -3.786501463804975E1  -1.163050406213679E2  -2.932205333775031E1  -6.323976367289734E1  
                        
 6.245345345345345E9    -2.459730561455912E1   1.098647739487279E2  -3.818097596920816E1   2.789958779289742E1  -2.464424982641733E1   5.931532004246342E1  -7.691514984387943   1.283945938088953E2  
                        -3.823609112690907E1   3.309883492544692E1  -2.838033907240014E1   1.572731720412940E2  -7.361680802005997   1.245579495808976E2  -3.445019218298776E1   1.259023289938517E1  
                        -2.463832067525976E1   5.994510268244211E1  -7.287471388208519   1.199984583320138E2  -3.011351401168141E1   1.683681217090737E2  -3.900487789893427E1   3.752040297102936E1  
                        -7.678069312798719   1.327721700414128E2  -3.443648238331584E1   1.237267472384778E1  -3.895653032229819E1   4.080409881480076E1  -3.159252537971376E1  -9.736114963740963E1  
                        
 6.315405405405405E9    -2.553317987986690E1   9.412066241878678E1  -3.808459306926702E1  -1.760945158589285E2  -2.441476629240072E1   1.478872508908159E1  -7.793265291341796  -8.052926578316585E1  
                        -3.805576631855274E1  -1.710149288260552E2  -2.501007933752982E1   1.722510783449029E2  -7.419745059329802  -8.443790963461014E1  -3.456868447961443E1   1.209868976060279  
                        -2.437479246934163E1   1.612762522905124E1  -7.404150073192913  -8.840919083097505E1  -2.158887668497984E1   1.439780875759171E2  -3.783132950112240E1  -1.633130321551431E2  
                        -7.745077847222741  -7.550002571292528E1  -3.449500981195365E1   9.762132891884758E-1  -3.786569090615685E1  -1.599209477996464E2  -2.865295053447924E1  -1.168851421381179E2  
                        
 6.385465465465465E9    -2.412487454908307E1   4.882161992657782E1  -3.696180144723438E1  -2.471893245538096E1  -2.421597036056777E1  -3.060268897538434E1  -7.922072279233872   7.217641273735204E1  
                        -3.709196573450088E1  -1.943487053327612E1  -3.172339710791889E1   1.328862102687822E2  -7.419432070755951   6.782468176768440E1  -3.454484235326310E1  -9.464062471461176  
                        -2.424822960667234E1  -2.981619151187556E1  -7.421843348941321   6.387810092754499E1  -2.518383303322463E1   9.882902157368177E1  -3.785822761359792E1  -1.806826938315463E1  
                        -7.857333150484089   7.653297480425718E1  -3.444891765126749E1  -9.238599435585305  -3.779319679529427E1  -1.221377841418119E1  -2.534084790006196E1  -1.047841760804671E2  
                        
 6.455525525525525E9    -3.176203526661905E1  -5.348277308962995E1  -3.742091093476066E1   1.256715631846862E2  -2.433534673653012E1  -7.599971476674571E1  -7.968913752946325  -1.360765884698271E2  
                        -3.751898590530119E1   1.316276672880620E2  -2.827962260546364E1   1.001060136209978E2  -7.466534606523419  -1.404787419711914E2  -3.434730348833880E1  -2.042184589631627E1  
                        -2.431435524713936E1  -7.509412900127715E1  -7.428891870179052  -1.448859032128391E2  -2.524990639900479E1   8.504965944397621E1  -3.752283519626584E1   1.367695335358012E2  
                        -7.878480179502169  -1.317128337462108E2  -3.430505200502973E1  -2.112315604962567E1  -3.769593308797639E1   1.406940309647075E2  -3.270677506023564E1  -1.250830672771635E2  
                        
 6.525585585585585E9    -3.641037956691827E1  -1.145780850876268E2  -3.698628008967313E1  -7.775400551181211E1  -2.421081086303821E1  -1.184905971128008E2  -7.975927298223137   1.582964447477130E1  
                        -3.687673333251666E1  -7.208457137644999E1  -2.937928499465331E1   1.132364502639492E2  -7.578916316414556   1.124004216657131E1  -3.424010547956242E1  -3.221454122883111E1  
                        -2.424181763717660E1  -1.184394746996673E2  -7.572443061849965   6.585547955678385  -2.324961187438262E1   5.332554061872466E1  -3.687151527176430E1  -6.913398699500193E1  
                        -7.955500577516967   2.032735044612792E1  -3.419120904971027E1  -3.323143073732794E1  -3.691586871785079E1  -6.543863618113615E1  -2.704506308470644E1   1.741597930562114E2  
                        
 6.595645645645645E9    -2.775122048917726E1  -1.278580660862368E2  -3.625668765837659E1   7.166352956943734E1  -2.400259949332297E1  -1.646284902445219E2  -8.054729101892168   1.673884933392988E2  
                        -3.614589872303471E1   7.711539196469902E1  -3.169105218646621E1   7.180501198494441E1  -7.542004748980911   1.628519363127225E2  -3.414453409166003E1  -4.429748299654280E1  
                        -2.402196377100269E1  -1.638192150676589E2  -7.579386953953546   1.581600982244908E2  -2.967638763711459E1   1.656095815187437E1  -3.677327276089471E1   7.772436750996445E1  
                        -8.032628526857158   1.720876014160523E2  -3.416125933706861E1  -4.502950446552973E1  -3.679621191620466E1   8.036152838483447E1  -2.886289111685248E1   1.796288252806542E2  
                        
 6.665705705705705E9    -2.324969850005308E1   1.632416808436363E2  -3.655343161748161E1  -1.440430004774344E2  -2.417345436185989E1   1.494457165696492E2  -8.169289795955690  -4.048534196385239E1  
                        -3.638193887018381E1  -1.395229064858870E2  -3.098319911559298E1   3.754869151441518E1  -7.645477212353617  -4.577934269551309E1  -3.425447921208738E1  -5.636666694543607E1  
                        -2.418485454135151E1   1.507819302072477E2  -7.583535277449516  -4.990682758738686E1  -2.895128004749997E1   1.817731303222297E1  -3.756978849313380E1  -1.303612144318840E2  
                        -8.154792654038975  -3.556812797270798E1  -3.419369026421325E1  -5.707941844507602E1  -3.743417922911982E1  -1.280043575745785E2  -5.394637421149547E1  -3.277155774616603E1  
                        
 6.735765765765765E9    -3.048461874789302E1   1.285847728899802E2  -3.678746199628164E1   1.246714804815931E1  -2.406093328492313E1   1.061161924303613E2  -8.175008876494688   1.116713877266082E2  
                        -3.682697496859192E1   1.633432212654472E1  -3.256804614365593E1   4.113568756789267E1  -7.708816861552121   1.063877407914242E2  -3.420631340615278E1  -6.879048025234962E1  
                        -2.402909433168959E1   1.070286984627753E2  -7.657517628345920   1.017831825413109E2  -4.064464465978659E1  -5.614260002676938E1  -3.696413168391575E1   2.093340836198930E1  
                        -8.144701763639066   1.160732078928410E2  -3.416199365302406E1  -6.901416534267214E1  -3.689891346086910E1   2.397562622901946E1  -3.184327779242535E1   1.242857612101799E2  
                        
 6.805825825825826E9    -2.745522862666723E1   1.185101116534885E2  -3.623174761584719E1   1.616150931214077E2  -2.397921456558751E1   6.109795265467543E1  -8.238000956236524  -9.606331627881836E1  
                        -3.635513742942830E1   1.661944429420532E2  -3.299288859107603E1  -8.298379370227657  -7.741884398362661  -1.024648051766210E2  -3.430305998307505E1  -8.017140517970411E1  
                        -2.393159923769325E1   6.210698539295670E1  -7.711716561195442  -1.066893940803112E2  -4.673677081238806E1  -3.478340657247987E1  -3.759260939759343E1   1.733074775493712E2  
                        -8.225463708304286  -9.172711045047062E1  -3.420642989465293E1  -8.087024823892921E1  -3.750567261541152E1   1.760438299979435E2  -2.888820146338961E1   1.400225823476779E2  
                        
 6.875885885885885E9    -2.927435251876464E1   6.112639227604069E1  -3.657204075636575E1  -4.863678194562861E1  -2.381690702952216E1   1.633227826165598E1  -8.260771628878553   5.575260149642396E1  
                        -3.665865637081818E1  -4.310397320848295E1  -4.320147464886060E1  -1.041091747731952E2  -7.842856162284432   4.972181781852338E1  -3.428682868231286E1  -9.116101538191046E1  
                        -2.378710025328657E1   1.688614727587966E1  -7.770804853118276   4.474046814568818E1  -3.205284679527085E1   1.092447304457756E2  -3.690949257448409E1  -3.409971375739745E1  
                        -8.246280633938264   6.068290377511566E1  -3.423223863156021E1  -9.175331915930630E1  -3.676135985598809E1  -3.072400263711198E1  -3.572665431540352E1   9.826573651747385E1  
                        
 6.945945945945946E9    -3.565530216946118E1  -2.163648109233861E1  -3.687453923141048E1   1.042291846415079E2  -2.392466027086412E1  -2.878275052998385E1  -8.320081999470400  -1.525661930517555E2  
                        -3.706220862876197E1   1.103308247212837E2  -4.712821314719302E1  -1.473503206112972E2  -7.880792526752056  -1.587588206431395E2  -3.424428578396587E1  -1.026074054868868E2  
                        -2.383763328955684E1  -2.804527827559975E1  -7.831919121663269  -1.635330486926272E2  -3.156738586764102E1   8.534612992410875E1  -3.681753749232374E1   1.177158854200055E2  
                        -8.272593489059732  -1.470869594528960E2  -3.414002976423142E1  -1.028628918150441E2  -3.688630485810936E1   1.220943706310815E2  -3.391960874436883E1   7.472966727571529E1  
                        
 7.016006006006005E9    -4.571990637594203E1  -1.401690358027445E1  -3.626259774521208E1  -9.916650272920360E1  -2.370022586333198E1  -7.231160776249304E1  -8.315451620262085  -8.028076678332988E-1  
                        -3.640358989957795E1  -9.285181795519040E1  -3.538123722315607E1   7.046382665171088E1  -7.932880987639019  -7.035015001391802  -3.406751193786961E1  -1.136870768428911E2  
                        -2.370775904989892E1  -7.193125452903981E1  -7.881821043057590  -1.195904072483511E1  -2.602255588141167E1   8.892889561412194E1  -3.617528002020288E1  -8.735544136844302E1  
                        -8.301425792891491   4.693115532267913  -3.404539434915046E1  -1.142205324601817E2  -3.632420187616305E1  -8.258716477918158E1  -2.850695312627432E1   8.534117883222029E1  
                        
 7.086066066066066E9    -3.423801157219243E1  -1.249551289233029E2  -3.593652010756538E1   5.062534383415876E1  -2.357173573409200E1  -1.186210469681333E2  -8.319761097117949   1.512179271386123E2  
                        -3.602637465132209E1   5.682688078633117E1  -3.537868821896811E1   7.863452260073802E1  -7.938569211939428   1.447240276647638E2  -3.392875169461581E1  -1.256613757263323E2  
                        -2.358366326442225E1  -1.171575749396258E2  -7.911130221968559   1.395971219539232E2  -2.808346237920171E1   4.672637629421627E1  -3.552647315242500E1   6.153332162373743E1  
                        -8.313879662581458   1.564765881147230E2  -3.386078992255337E1  -1.257819289839732E2  -3.571616280693508E1   6.629076643939928E1  -3.030097283867516E1   6.829141516148651E1  
                        
 7.156126126126125E9    -3.284432021180122E1   1.713366938136164E2  -3.556504352406635E1  -1.580988812730681E2  -2.362490689518964E1  -1.632357634325182E2  -8.311860219068555  -5.682187920291803E1  
                        -3.560146666939348E1  -1.518416304800641E2  -4.114508080260396E1  -7.266531332290010E1  -8.025043161866327  -6.354178796318045E1  -3.381134921362128E1  -1.369344983411699E2  
                        -2.362837528930105E1  -1.624801588957983E2  -7.965173791686714  -6.860161294480255E1  -2.716231680304636E1   6.179647079931755E1  -3.604739970021861E1  -1.482272951601893E2  
                        -8.315990132594525  -5.150032620067800E1  -3.374128377590589E1  -1.376971737628520E2  -3.592305245346623E1  -1.446662545126658E2  -3.088789994061112E1   4.971751224912420E1  
                        
 7.226186186186186E9    -3.060124572927550E1   1.191871458665458E2  -3.513741335479635E1  -7.771753663844610  -2.357729134876336E1   1.523844395695425E2  -8.389759297905831   9.479207028139736E1  
                        -3.518299100926659E1  -2.009688733226646  -4.200648227377759E1  -4.724569571736169E1  -8.035225233150964   8.794098344572048E1  -3.369829589752970E1  -1.497731546119198E2  
                        -2.360234356152175E1   1.533983733504414E2  -8.002108148821110   8.304053307328182E1  -2.410598910640927E1   4.457946377007261E1  -3.617844473183458E1   3.442648894437065  
                        -8.350728881623239   1.003315257279076E2  -3.359533171594050E1  -1.502863899035507E2  -3.604621293169262E1   8.065034301286644  -2.984200181556661E1   4.670564633980037E1  
                        
 7.296246246246245E9    -2.903521932155911E1   8.921995661391560E1  -3.499103265996579E1   1.417046529158671E2  -2.328624643162661E1   1.081976556397746E2  -8.384435113757853  -1.135527810324485E2  
                        -3.503964046539178E1   1.476895217419155E2  -3.607080895461324E1   1.143492061234461E2  -8.084791008965652  -1.200423772806327E2  -3.363821581151721E1  -1.626304533943037E2  
                        -2.330859308463686E1   1.086560855534446E2  -8.044669415434013  -1.252038938747422E2  -3.281065796993906E1   3.481385943426153E1  -3.521823011871710E1   1.535400868738414E2  
                        -8.347442090762350  -1.078828029646596E2  -3.358188641796886E1  -1.627745012388621E2  -3.502686836827808E1   1.577350415336008E2  -2.924651710230650E1   2.605019124913944E1  
                        
 7.366306306306306E9    -2.681786832252968E1   6.042831645782375E1  -3.509027088109323E1  -6.871339161904258E1  -2.336325749964786E1   6.195609274038196E1  -8.426802627713101   3.853309684544390E1  
                        -3.507470129721148E1  -6.332014102581494E1  -3.605103853198506E1   1.578420243690950E2  -8.120374434282100   3.158726325080037E1  -3.371920445328603E1  -1.747403364724912E2  
                        -2.340501521557523E1   6.263667667022814E1  -8.100902678753663   2.641404431008682E1  -2.445301392959312E1   1.601711033449751E1  -3.578695799471582E1  -5.941196300129322E1  
                        -8.380802954752504   4.395982129409892E1  -3.362663327815399E1  -1.749255774612929E2  -3.573987540615517E1  -5.500226741191244E1  -3.219377242221238E1   7.339338723442658  
                        
 7.436366366366365E9    -2.584100122763628E1   3.356143412708637E1  -3.488420747120009E1   8.041965826383175E1  -2.332782383796424E1   1.837962465809538E1  -8.376550933443177  -1.695171618070132E2  
                        -3.490490790544438E1   8.632246921803998E1  -4.390423878906686E1  -1.666630281910992E2  -8.200793649722339  -1.768334028191544E2  -3.358063302338845E1   1.732255937343026E2  
                        -2.330999297684210E1   1.874559970648141E1  -8.153272556639370   1.781776971904268E2  -2.692501571053652E1  -3.479610645680285E1  -3.576338825672224E1   9.761298740861888E1  
                        -8.398406824135849  -1.642597553060201E2  -3.356636655917764E1   1.735731359488540E2  -3.592339081282536E1   1.034361814411530E2  -3.347655148237904E1   5.185875819596799E1  
                        
 7.506426426426426E9    -3.197641348660134E1  -4.764256315954655E1  -3.551419121894256E1  -1.249954838745918E2  -2.312139584246947E1  -2.743454988449216E1  -8.429581836757274  -1.846321147350777E1  
                        -3.557140126291792E1  -1.191901821182650E2  -2.746325330520710E1   8.371223489055898E1  -8.276914407984735  -2.501629679270559E1  -3.367300565026768E1   1.615158826633906E2  
                        -2.314429342583846E1  -2.660783625393892E1  -8.233621558666410  -3.052300118445812E1  -2.713313362690823E1  -5.867538504724553  -3.474159140761369E1  -1.135712194032676E2  
                        -8.400827964945130  -1.239742625379895E1  -3.358194715679946E1   1.616346912314935E2  -3.469454054190310E1  -1.087831125203870E2  -2.837992692630179E1  -1.665903552397064E1  
                        
 7.576486486486486E9    -2.994822822763055E1  -6.146459877449716E1  -3.477819685976055E1   2.573189846783222E1  -2.311940979646278E1  -7.246484954231117E1  -8.467580043315103   1.332522118517899E2  
                        -3.476092132040041E1   3.187848624127152E1  -5.050169329945081E1   2.971819031721919E1  -8.354423395958753   1.269385883297272E2  -3.354350894967887E1   1.503057903204510E2  
                        -2.316142121383063E1  -7.156561744553316E1  -8.275234867634296   1.215532936434717E2  -2.774272255695011E1  -1.043361261860287E2  -3.542393410118397E1   3.808657466331646E1  
                        -8.433505859028943   1.392446471605124E2  -3.346859634896793E1   1.500485858125404E2  -3.529605909980601E1   4.342821885180221E1  -3.188012294212806E1  -9.153899557599198  
                        
 7.646546546546546E9    -2.923871690233731E1  -1.393047638399831E2  -3.465855165932159E1   1.776946291665425E2  -2.316945196020045E1  -1.169202334953104E2  -8.520204942243337  -7.501633865153779E1  
                        -3.473125504917970E1  -1.769467601080425E2  -4.407198643667214E1  -5.124709878529053E1  -8.321911068595659  -8.140287044058410E1  -3.342349894883806E1   1.383052136261657E2  
                        -2.315400828651378E1  -1.158718826492530E2  -8.309406779958017  -8.704163194454750E1  -3.210523194916032E1   1.757379822848886E2  -3.491304227084241E1  -1.664144697143127E2  
                        -8.475908799550515  -6.918146700515153E1  -3.330973514542689E1   1.380959126998515E2  -3.497206293082813E1  -1.615942427186883E2  -3.273605108357030E1  -2.583127544392460E1  
                        
 7.716606606606606E9    -2.696047589268996E1   1.532000853717733E2  -3.456742406275579E1  -3.176334445226874E1  -2.305576670835233E1  -1.623320341498973E2  -8.539654612798042   7.701467029079389E1  
                        -3.468415116255900E1  -2.551398129205951E1  -3.793837054804601E1   8.649405161610532E1  -8.487680178856754   7.002774310697902E1  -3.332448248876927E1   1.265003184939548E2  
                        -2.308470977130879E1  -1.615786155092204E2  -8.363340107564259   6.465593880635768E1  -2.801557046637311E1   1.538394544326468E2  -3.428102407486833E1  -1.864627311242695E1  
                        -8.483113396322590   8.238939350953807E1  -3.318843308237457E1   1.257209964581049E2  -3.416696037424619E1  -1.533428805908009E1  -3.063897334029028E1  -5.155954170507546E1  
                        
 7.786666666666666E9    -2.461625768427759E1   1.162620997581100E2  -3.423118962692007E1   1.179714202388478E2  -2.308554035683636E1   1.533655603627290E2  -8.530242388359827  -1.318286569136543E2  
                        -3.421413906107134E1   1.246191082917468E2  -4.558375191233952E1  -1.371082660170474E2  -8.573010773362686  -1.376756253644301E2  -3.322944227104079E1   1.132300341564613E2  
                        -2.311485132369818E1   1.539658471160289E2  -8.450082766510116  -1.435624000826680E2  -2.358928972619169E1   9.640510731251493E1  -3.443165639586562E1   1.322586340077447E2  
                        -8.556944414725153  -1.257395393419782E2  -3.309871876357435E1   1.131213145127642E2  -3.439963353034279E1   1.362356372485836E2  -3.097144437412111E1  -5.690333098710934E1  
                        
 7.856726726726727E9    -2.259761734612474E1   8.416365589667093E1  -3.411214710689806E1  -9.300197844987162E1  -2.301227358273851E1   1.084747653856774E2  -8.607848642706673   1.993936850150363E1  
                        -3.409731572084607E1  -8.644134364192045E1  -3.282672074649194E1   1.184265986239425E2  -8.488247174744940   1.324782315124862E1  -3.323468050446044E1   1.004086529492372E2  
                        -2.307784567810827E1   1.089313801839550E2  -8.510660566298185   7.837588035204433  -2.212747952740644E1   6.419823874026339E1  -3.451621656302439E1  -8.063025501207237E1  
                        -8.569227435737179   2.608260345845823E1  -3.313192159388450E1   9.999420864752520E1  -3.432761966202379E1  -7.435626009403867E1  -3.894515081043557E1  -1.180403988023141E2  
                        
 7.926786786786786E9    -2.139597672907923E1   4.833549871326673E1  -3.394087065180582E1   5.525014376879288E1  -2.296240109355699E1   6.320984676354485E1  -8.660317691485112   1.715280964095841E2  
                        -3.390203036445144E1   6.199687694614102E1  -2.927859062059820E1   9.065947613434861E1  -8.526394178293897   1.652585384199676E2  -3.336090182281856E1   8.743421905760077E1  
                        -2.305750369939429E1   6.354997116001421E1  -8.601236114301543   1.594115996030697E2  -1.993807977013165E1   2.635239254796854E1  -3.469127692992603E1   6.775800460358904E1  
                        -8.623384344949882   1.778679807076124E2  -3.316807620180379E1   8.737172094170495E1  -3.452534613799696E1   7.506765558733497E1  -3.355262612555701E1   5.195859708179764E1  
                        
 7.996846846846847E9    -2.231119864656051E1  -4.046908241929442  -3.439096890502789E1  -1.532804898992311E2  -2.298041734757127E1   1.908392548432170E1  -8.643705023473737  -3.632694678777666E1  
                        -3.443819164920964E1  -1.466761289093728E2  -3.084448142092683E1   6.184244870754577E1  -8.662239569350001  -4.278702321213672E1  -3.327786720355406E1   7.536697516717662E1  
                        -2.302202222214385E1   1.963305028505371E1  -8.609884709622344  -4.864873477948508E1  -2.050607098781365E1  -3.661914870863749  -3.429932308077810E1  -1.380147316797380E2  
                        -8.635246342906600  -3.034932735634704E1  -3.320117447229558E1   7.525267183422115E1  -3.428220374466680E1  -1.313349609413421E2  -3.628052479487064E1  -2.852728123850883E1  
                        
 8.066906906906906E9    -2.336085085839357E1  -3.687761902895782E1  -3.423546990773759E1  -1.389739518951766  -2.278730314634696E1  -2.698552167364608E1  -8.627832521492042   1.147055086260047E2  
                        -3.416779351335585E1   5.114811969508724  -2.548961934988322E1   2.631466977630201E1  -8.725793812227918   1.089088903265453E2  -3.330488770591901E1   6.346655508785631E1  
                        -2.291341340494879E1  -2.589662261767972E1  -8.737254801040994   1.028828556126434E2  -1.967504611118043E1  -3.479697250363451E1  -3.405919880704271E1   1.114171390999213E1  
                        -8.660613431033454   1.209675667553711E2  -3.326299092382879E1   6.326923514111689E1  -3.401950358780307E1   1.654606838462668E1  -2.953565733457769E1  -6.275289621292380E1  
                        
 8.136966966966967E9    -2.092002343700637E1  -7.546063043800326E1  -3.414378475297819E1   1.465100151828251E2  -2.297827945535258E1  -7.139151641586552E1  -8.755905360667782  -9.381450113441923E1  
                        -3.407345168116108E1   1.530938139645878E2  -3.150377536978949E1   2.438090895382513E1  -8.768460685639875  -9.911573938183913E1  -3.325803363200118E1   5.183365675398009E1  
                        -2.299251721460818E1  -7.079249456864336E1  -8.770192060089464  -1.049741001773407E2  -1.987584613498951E1  -9.188041742901676E1  -3.458010564565539E1   1.647576471822572E2  
                        -8.748659657136132  -8.743270960474504E1  -3.328996572402337E1   5.139810091923999E1  -3.468165800663079E1   1.697427787153763E2  -3.108969287297946E1  -2.782763534489069E1  
                        
 8.207027027027026E9    -2.283158687219378E1  -1.413714161366729E2  -3.463954054753055E1  -5.898279090528747E1  -2.300079395232601E1  -1.146963692076194E2  -8.776387026539513   5.836213467423739E1  
                        -3.473012782612405E1  -5.334048395881078E1  -3.481492519822380E1   3.397885032339985E1  -8.793385292636108   5.234841447724507E1  -3.318121548748561E1   4.060590033640904E1  
                        -2.305985530409328E1  -1.146065991981929E2  -8.770373458223943   4.658411921407414E1  -2.256502680051127E1  -1.323510215378627E2  -3.442682434321780E1  -4.124922319661162E1  
                        -8.740397133806155   6.440606066792044E1  -3.317034805917287E1   4.009068350865558E1  -3.434414915500152E1  -3.671759795285346E1  -3.187352908570484E1  -2.800257149146290E1  
                        
 8.277087087087087E9    -2.205229798919974E1   1.689762273462068E2  -3.441968923606995E1   9.206658088616679E1  -2.293912470746590E1  -1.608151193114078E2  -8.812038613336112  -1.495449969061062E2  
                        -3.446102427519038E1   9.813101846910362E1  -2.645574703400909E1   3.219790649103504  -8.899989765762705  -1.557965406174538E2  -3.318285647231317E1   2.753418121053937E1  
                        -2.301663880109330E1  -1.607218576570810E2  -8.922674357944773  -1.620445814830081E2  -2.049662319312114E1  -1.744247597457443E2  -3.369829173376197E1   1.043860227678771E2  
                        -8.844736264017389  -1.442500522773651E2  -3.310378808896233E1   2.748074871655160E1  -3.369814985498404E1   1.099103596028496E2  -3.085873122238791E1  -6.501551194815217E1  
                        
 8.347147147147146E9    -1.970963704048354E1   1.362103087005326E2  -3.382320517574797E1  -1.196654889144903E2  -2.303805045902757E1   1.540121147499761E2  -8.866709512778973   1.507462625922951  
                        -3.391878356181174E1  -1.133509901874827E2  -2.936376423443733E1   1.007100792945478E1  -8.963713955742904  -3.207030812228929  -3.317513669261049E1   1.490455592235954E1  
                        -2.313574552397797E1   1.547162331664623E2  -8.969732466812316  -9.872500066856995  -1.884343977883702E1   1.290807777043989E2  -3.447237887880281E1  -1.059963264640097E2  
                        -8.941208824597091   7.246736238258091  -3.314288863532963E1   1.462722390892936E1  -3.426972469755229E1  -1.004755299143624E2  -2.719799447651836E1  -5.731800072995130E1  
                        
 8.417207207207207E9    -1.802474779312678E1   8.790961392327063E1  -3.421630100517907E1   2.995177147524967E1  -2.316667325873220E1   1.104152703282672E2  -8.976603006083092   1.533874138518067E2  
                        -3.426898828892271E1   3.691268852527908E1  -2.984500594336413E1   1.077318201047282E1  -9.023024227719137   1.483001638108389E2  -3.324279740565522E1   2.519746746000337  
                        -2.325346865580154E1   1.111482435507746E2  -9.022957863866498   1.419793966212357E2  -1.911196701010643E1   8.054662032088389E1  -3.453066171524599E1   4.631338145062003E1  
                        -9.014611587953622   1.597925673841936E2  -3.314946006481520E1   1.973368469901809  -3.438845412505133E1   5.190090601192734E1  -2.924706885485746E1  -4.810200129724894E1  
                        
 8.487267267267266E9    -1.845825957309577E1   4.523025866076031E1  -3.452420127995939E1  -1.777521084441351E2  -2.304999484240905E1   6.578763934729605E1  -8.995122363706361  -5.454015791718117E1  
                        -3.464610618999382E1  -1.712581881802636E2  -2.542218389227460E1  -2.335819192566106E1  -9.148785122205748  -5.982124510644047E1  -3.333177502458536E1  -1.042932230434963E1  
                        -2.317840069558273E1   6.663563270778137E1  -9.139459869730398  -6.590046085144144E1  -1.670298131432179E1   5.374271058291036E1  -3.383930040827138E1  -1.671867603130266E2  
                        -8.983973050296426  -4.821195680120948E1  -3.322763772033350E1  -1.042360263107902E1  -3.371041410628705E1  -1.608870849487583E2  -3.110851721474096E1  -5.106430783309630E1  
                        
 8.557327327327327E9    -1.790809877373230E1   1.480914946288005E1  -3.421051948590210E1  -2.814937409800162E1  -2.308628419788329E1   2.195485546712947E1  -9.082815248527655   9.704260611745899E1  
                        -3.435137115538545E1  -2.172394626214642E1  -2.637760593177312E1  -2.828716237024334E1  -9.112250501552504   9.232059423666476E1  -3.345829073187348E1  -2.294977942395036E1  
                        -2.318900288758393E1   2.230506052940800E1  -9.174145349291917   8.661830216230156E1  -1.662598164293419E1   6.948809321068544  -3.465332778767553E1  -1.758639477419664E1  
                        -9.039061495719409   1.031322675687347E2  -3.336718637006742E1  -2.254021852491525E1  -3.468656529883526E1  -1.115788698549386E1  -2.723061413603184E1  -7.422563733406598E1  
                        
 8.627387387387386E9    -1.747490319994126E1  -2.596254959333315E1  -3.431565491210456E1   1.211077982687475E2  -2.303477356515757E1  -2.269555318279006E1  -9.116749806632114  -1.110380555779260E2  
                        -3.440129033765408E1   1.271091080000770E2  -2.943439898018613E1  -5.635399836623535E1  -9.124910312960203  -1.159771037101367E2  -3.352779127577820E1  -3.467990384080937E1  
                        -2.307627518461923E1  -2.225162110563679E1  -9.125155975180086  -1.215453153062015E2  -1.700532981120190E1  -3.199595928855280E1  -3.459549404529150E1   1.361266420168622E2  
                        -9.124567752155672  -1.055276260090134E2  -3.343923059065859E1  -3.428067831137294E1  -3.465573779586762E1   1.418798642145023E2  -2.699433455106180E1  -7.078255974686934E1  
                        
 8.697447447447447E9    -1.830877845249700E1  -7.964882969596056E1  -3.527484810425201E1  -8.816774289148231E1  -2.314329418266704E1  -6.656182868640281E1  -9.147034692886708   4.111467788202209E1  
                        -3.536752613963999E1  -8.242794185682683E1  -2.670917129963650E1  -4.009559266238128E1  -9.157410434142401   3.587851654436808E1  -3.359666936543336E1  -4.576578419466243E1  
                        -2.322797618077055E1  -6.621182390482899E1  -9.174089770206996   3.080022560996442E1  -1.606078753254767E1  -7.015753528108459E1  -3.495484779861232E1  -7.349478188147845E1  
                        -9.189619592218312   4.681819141866130E1  -3.354602530089479E1  -4.592909133183672E1  -3.505968254444612E1  -6.867696717155046E1  -2.909989301591861E1  -4.508371747457288E1  
                        
 8.767507507507507E9    -1.968893540178278E1  -1.130616965154239E2  -3.481764362154092E1   6.558885341469215E1  -2.289794523917006E1  -1.118480360536925E2  -9.196079823571534  -1.677708355528710E2  
                        -3.489375530095456E1   7.199594777418962E1  -2.650489456637960E1  -6.668901800252269E1  -9.202864117797626  -1.728951719309351E2  -3.356364621144374E1  -5.765602860055466E1  
                        -2.296637301845895E1  -1.106015547610203E2  -9.194545075740791  -1.776518941481215E2  -1.678619974093398E1  -1.092612850562674E2  -3.487818569527770E1   8.053421335109248E1  
                        -9.197100950459143  -1.615737014360315E2  -3.358400096127629E1  -5.797289545132590E1  -3.485605844771879E1   8.406796734000213E1  -2.797911983906004E1  -7.121813290440403E1  
                        
 8.837567567567566E9    -1.841008039504552E1  -1.651644078612083E2  -3.488626802355488E1  -1.458126895700654E2  -2.291762450870416E1  -1.563999445104725E2  -9.298412707390595  -1.654796585095902E1  
                        -3.501132231412490E1  -1.389432549541799E2  -2.832505910728830E1  -7.976551659584301E1  -9.157133991320647  -2.051275513489367E1  -3.358887281004658E1  -7.006865786165594E1  
                        -2.296678380133446E1  -1.554020478554729E2  -9.183844756246263  -2.574988516131120E1  -1.733100579457383E1  -1.548638559299371E2  -3.495031241292317E1  -1.273171439332805E2  
                        -9.312198031711022  -9.561722213813095  -3.360391144577321E1  -6.996067356568629E1  -3.492414385114618E1  -1.234361027621047E2  -2.864560393871646E1  -6.711362133111913E1  
                        
 8.907627627627626E9    -1.740807330183461E1   1.392594252834346E2  -3.574432054019736E1   5.236433537418179  -2.315397241106070E1   1.593447675479649E2  -9.331834521962868   1.352740084995187E2  
                        -3.584023619611295E1   1.186319655497459E1  -2.639528660961343E1  -4.607947672674989E1  -9.303042177679394   1.314737884260339E2  -3.368159097386840E1  -8.146820919919104E1  
                        -2.316510763640433E1   1.607129773577528E2  -9.240297641727439   1.263960800587026E2  -1.695043049575758E1   1.527202088582276E2  -3.541898928454675E1   2.030789667153549E1  
                        -9.389382309718526   1.425636014523877E2  -3.373409399588579E1  -8.135876391041566E1  -3.539396072108505E1   2.559898065490429E1  -2.729777615157608E1  -6.054930976185705E1  
                        
 8.977687687687687E9    -1.827353300573779E1   1.010210309842106E2  -3.532639751432680E1   1.612792792558205E2  -2.288904591402402E1   1.154878451688968E2  -9.401375827408183  -7.289414185770310E1  
                        -3.533097065288342E1   1.681853121374979E2  -2.419609958753425E1  -6.559367469678602E1  -9.239015154358622  -7.718074886902394E1  -3.372198463415170E1  -9.444630760093997E1  
                        -2.291446114649309E1   1.165316250718152E2  -9.220530076770560  -8.209370182761892E1  -1.730725150737803E1   1.076993129166881E2  -3.527349553076652E1   1.717855007403394E2  
                        -9.421902473123913  -6.596073577556959E1  -3.370546548813467E1  -9.358932137226967E1  -3.512573616248888E1   1.780425537060564E2  -2.760146946072687E1  -8.468213910358894E1  
                        
 9.047747747747747E9    -1.658754721025469E1   5.996678770939075E1  -3.511461962394206E1  -5.064274230192285E1  -2.284134431878039E1   6.965789792629430E1  -9.532563364051194   7.913560824228216E1  
                        -3.517775925610803E1  -4.395920229079022E1  -2.193250889012650E1  -9.950334061709044E1  -9.344098465461368   7.509712650277686E1  -3.396208672825874E1  -1.063300413116986E2  
                        -2.287355941391781E1   7.035172015271687E1  -9.341480054245476   6.899760460546128E1  -1.500893152569250E1   6.819418799262645E1  -3.485219236088328E1  -4.110095400414785E1  
                        -9.533735115541489   8.600143568483932E1  -3.391848326776167E1  -1.064194177346138E2  -3.469297236963936E1  -3.434895066036016E1  -2.458613256870498E1  -8.837720660857042E1  
                        
 9.117807807807808E9    -1.600425547407524E1   1.303223558337147E1  -3.555999990168273E1   9.957480450294574E1  -2.292253142963092E1   2.622727020163085E1  -9.616225256470187  -1.287779144393097E2  
                        -3.545390024965176E1   1.072458081004711E2  -2.241792273478667E1  -8.265674507727080E1  -9.267156723176067  -1.323562116994413E2  -3.404458650004440E1  -1.174575879602226E2  
                        -2.298321996485347E1   2.762813590264348E1  -9.334316885470622  -1.384696189110205E2  -1.536306957589156E1   1.524207530773080E1  -3.619431928125555E1   1.117034153859797E2  
                        -9.587075690891641  -1.216822988638731E2  -3.397946277686931E1  -1.171892540966378E2  -3.605413961476044E1   1.181191921411967E2  -2.664623748928170E1  -1.020706018406633E2  
                        
 9.187867867867867E9    -1.592282153959946E1  -2.868439122097301E1  -3.570586159339778E1  -1.085964642796029E2  -2.270719284790100E1  -1.892701078668912E1  -9.663951111664224   2.276342827598688E1  
                        -3.563586503439959E1  -1.018274763395940E2  -2.255126965476893E1  -1.177332675479361E2  -9.343416292136334   1.852104639572528E1  -3.412225802411646E1  -1.294072095381931E2  
                        -2.274032297799322E1  -1.733603478966826E1  -9.382544951486915   1.283183864868970E1  -1.467984470782294E1  -1.807325244063854E1  -3.534905921295531E1  -9.376504567770988E1  
                        -9.643673836276818   3.038921614697916E1  -3.406366170111852E1  -1.292002683039320E2  -3.531144733870858E1  -8.861053716115509E1  -2.728052297746310E1  -1.217256444700514E2  
                        
 9.257927927927927E9    -1.628192260077889E1  -5.943241076943176E1  -3.531602708213366E1   4.477928672989039E1  -2.251053980413652E1  -6.405643913348941E1  -9.693300860123459   1.745665967230968E2  
                        -3.530737135147216E1   5.120569574918628E1  -2.161680966590279E1  -1.315261317140309E2  -9.381952048026435   1.703759680691198E2  -3.426499018542804E1  -1.415947859538047E2  
                        -2.270014158337533E1  -6.247702500437119E1  -9.447811941541040   1.649684601270884E2  -1.364740432365134E1  -5.570382053495322E1  -3.556278403803838E1   5.408091652716040E1  
                        -9.693336853229832  -1.781382930086050E2  -3.424398907697829E1  -1.408579170265451E2  -3.552961247228953E1   6.000313415843497E1  -2.852332012563396E1  -1.506654474403257E2  
                        
 9.327987987987988E9    -1.623967825377672E1  -1.091359210971591E2  -3.585322291021678E1  -1.662922007191366E2  -2.271838448813216E1  -1.080845017741498E2  -9.822587510440433  -3.332945853265338E1  
                        -3.584532941402412E1  -1.598667142609743E2  -2.318809435474220E1  -1.294839062972053E2  -9.370899298885803  -3.733119879466679E1  -3.425032379880052E1  -1.516343762896322E2  
                        -2.280159907666031E1  -1.064102846161658E2  -9.424889743612470  -4.319282681297896E1  -1.513314150248355E1  -1.027674848537267E2  -3.618647126051209E1  -1.505299598137194E2  
                        -9.827084671862028  -2.608370075511154E1  -3.428557965182191E1  -1.514106846618757E2  -3.639116726188651E1  -1.460975679495788E2  -2.967047324700197E1  -1.206016166409122E2  
                        
 9.398048048048048E9    -1.654453132552578E1  -1.573681320284696E2  -3.624159181101622E1  -1.445324225289410E1  -2.258449917221581E1  -1.522094169885943E2  -9.868190870773878   1.190934171208448E2  
                        -3.618708294989554E1  -7.352611916736431  -2.312458895530680E1  -1.567984074952405E2  -9.405022764094968   1.144297816335396E2  -3.427660219105736E1  -1.629247091138581E2  
                        -2.267605015400553E1  -1.515008023915475E2  -9.450371315688640   1.082353398211158E2  -1.501354757313124E1  -1.384373943529091E2  -3.587805549378007E1   2.718448242952203  
                        -9.918171538218985   1.263565722456610E2  -3.437767608174846E1  -1.627639218841197E2  -3.591766644728183E1   7.109414536953341  -3.165215106666828E1  -1.617664312186907E2  
                        
 9.468108108108107E9    -1.699337772460629E1   1.624472775693291E2  -3.614005238035440E1   1.398111449604537E2  -2.255357765704959E1   1.628823868636291E2  -9.904695093367486  -8.885491990183472E1  
                        -3.610377671808715E1   1.472955144755058E2  -2.329883038500296E1  -1.650487267390530E2  -9.464372671967196  -9.402235781443874E1  -3.443898009329378E1  -1.733785955100857E2  
                        -2.259770882366608E1   1.640391576302892E2  -9.495888019664447  -9.984547340527813E1  -1.612416171865432E1   1.747440551083701E2  -3.634024781450161E1   1.516265334204568E2  
                        -9.934464140193365  -8.167472916619431E1  -3.436311828402436E1  -1.738993786082278E2  -3.614712898687048E1   1.564032196821704E2  -3.065773902988203E1   1.448081036623433E2  
                        
 9.538168168168167E9    -1.661212757212467E1   1.197278564617954E2  -3.559926966733728E1  -6.839165716715533E1  -2.248161759782503E1   1.177996828058488E2  -9.966785037141257   6.324540728718345E1  
                        -3.562879664402990E1  -6.139204363492829E1  -2.525459926982885E1  -1.680744914726272E2  -9.422623708582467   5.833772544518275E1  -3.432210905588940E1   1.749067299594778E2  
                        -2.255566483538722E1   1.197911666708156E2  -9.460169190929154   5.218053465678166E1  -1.679963674097976E1   1.166294757386683E2  -3.689425610661201E1  -5.501114566750193E1  
                        -9.983658945816085   7.049962608514498E1  -3.430226424374153E1   1.749683217910954E2  -3.669438316425291E1  -4.980691831743024E1  -2.943486726734248E1   1.492969615370206E2  
                        
 9.608228228228228E9    -1.663058476471386E1   7.030755937727314E1  -3.593451180386680E1   8.126112945598800E1  -2.240802128384227E1   7.289663307652559E1  -9.976433343099442  -1.446150246767918E2  
                        -3.593503458675459E1   8.823369383711473E1  -2.527972006350635E1   1.601590325441745E2  -9.468473563938478  -1.507466135905787E2  -3.438698399974540E1   1.630838132013021E2  
                        -2.253554316618099E1   7.448686578828868E1  -9.569956492183898  -1.560724212816916E2  -1.542368041629948E1   7.927179981513345E1  -3.612630532604850E1   9.543584242697190E1  
                        -1.001470169488398E1  -1.372389711481744E2  -3.430053321461364E1   1.633834475908451E2  -3.602269656060761E1   1.022089679616750E2  -3.509712201368598E1   1.576227179525602E2  
                        
 9.678288288288288E9    -1.656803342106803E1   2.211029318412007E1  -3.622303897582909E1  -1.265859510392064E2  -2.246395477927437E1   2.943445035594973E1  -1.005675150893194E1   7.215361320968303  
                        -3.617952459620535E1  -1.197131338277600E2  -2.536787926149521E1   1.677352693828705E2  -9.467882625513246   1.171240849869211  -3.421512008755736E1   1.513205542837450E2  
                        -2.257488822175590E1   3.079111171821839E1  -9.524403335284928  -4.291962165421567  -1.551844801090090E1   2.277271340657513E1  -3.669728058015839E1  -1.138701396245549E2  
                        -1.003052623752791E1   1.504772044453756E1  -3.420450616100860E1   1.522127392144729E2  -3.684251681377250E1  -1.061651229052677E2  -3.808640407830767E1   1.149100341390706E2  
                        
 9.748348348348347E9    -1.569099913734086E1  -1.695817138537160E1  -3.572389597998114E1   2.091495456062495E1  -2.232564924526616E1  -1.581048621425031E1  -1.011772781569792E1   1.594569746577187E2  
                        -3.569415403163408E1   2.849078348737737E1  -2.977527114625957E1   1.255582491734104E2  -9.453501712375012   1.534233909620910E2  -3.427781937887941E1   1.391024113943178E2  
                        -2.242022676778360E1  -1.472822992747346E1  -9.554849966881795   1.467294805327519E2  -1.479941919493481E1  -1.013481363541082E1  -3.636603090150702E1   4.202074112305357E1  
                        -1.008158416926239E1   1.668079808069778E2  -3.428290584016702E1   1.392920145138413E2  -3.639576394126868E1   4.931198389353815E1  -3.152767212484829E1   1.488817504522356E2  
                        
 9.818408408408407E9    -1.521728972977652E1  -6.146580754833079E1  -3.599260320532137E1   1.690182879766273E2  -2.243261880218128E1  -6.092452684840745E1  -1.017564475264788E1  -4.858461466512526E1  
                        -3.600522613620554E1   1.767828843533726E2  -2.670248377177668E1   1.187712654345619E2  -9.550446353205231  -5.414098391074834E1  -3.437129654025733E1   1.283593946442674E2  
                        -2.258241005712705E1  -6.037979541753859E1  -9.709201754942967  -6.126291483893096E1  -1.371457738940529E1  -5.053404164580274E1  -3.648512182747813E1  -1.721780881209410E2  
                        -1.014767025012340E1  -4.104076685843374E1  -3.443160113402569E1   1.282434846975679E2  -3.639208853734193E1  -1.651854645330882E2  -2.681869660412172E1   1.473918087070430E2  
                        
 9.888468468468468E9    -1.551494542051391E1  -1.072740765040588E2  -3.664265321239980E1  -3.921479689980453E1  -2.247484356517564E1  -1.045599409037542E2  -1.013701182134152E1   1.032786014109887E2  
                        -3.664782574748035E1  -3.079974105174429E1  -3.164137553690419E1   1.342431646409221E2  -9.493056451120868   9.803951694855547E1  -3.429414291821946E1   1.175616972939416E2  
                        -2.257946794286533E1  -1.032580128270606E2  -9.606966563527211   9.053262847447681E1  -1.513246063146065E1  -9.701845697641379E1  -3.748025630160912E1  -1.688835497608677E1  
                        -1.016339355281267E1   1.111783817972561E2  -3.435630080650967E1   1.169141681133183E2  -3.740799136775969E1  -1.128574909219987E1  -3.142833039758909E1   1.147825237089040E2  
                        
 9.958528528528528E9    -1.529587012595431E1  -1.453159030927258E2  -3.690373153800618E1   1.116105153894019E2  -2.234952557084096E1  -1.493696756039922E2  -1.013311479790945E1  -1.049002399121985E2  
                        -3.689912875316184E1   1.205858170809495E2  -3.306529232059439E1   1.176197655251836E2  -9.485227971862068  -1.108326472636090E2  -3.432838118430425E1   1.059129699904987E2  
                        -2.246240976400095E1  -1.477485296544143E2  -9.631666295261258  -1.178530510716213E2  -1.582066956374509E1  -1.274010673908798E2  -3.740509159934867E1   1.382362956149922E2  
                        -1.017837717264111E1  -9.623876189528778E1  -3.441233863293851E1   1.053287034211614E2  -3.734788202029024E1   1.436477100764210E2  -2.822660642068045E1   8.583674502265660E1  
                        
 1.002858858858859E10   -1.561420010485714E1   1.739116832898394E2  -3.733860399907245E1  -9.539627020077158E1  -2.238426520872064E1   1.653482140200859E2  -1.016778726060997E1   4.749832006183546E1  
                        -3.733440125627969E1  -8.634364560664187E1  -2.737827860755541E1   7.968098874439640E1  -9.616831304606759   4.101277824589141E1  -3.446149781801273E1   9.462073794901477E1  
                        -2.247316307419656E1   1.672872827497237E2  -9.680134193366877   3.419121856633861E1  -1.589172559951461E1  -1.707475162944070E2  -3.708867072302365E1  -7.599047264823199E1  
                        -1.022296784581104E1   5.583560258070875E1  -3.453484538345402E1   9.477429020517224E1  -3.705215011637532E1  -7.081394646184624E1  -2.613597312998429E1   9.567192846320685E1  
                        
 1.009864864864865E10   -1.651876098505035E1   1.279146485194897E2  -3.769778330911832E1   5.843155322373714E1  -2.245514761086395E1   1.228523929589658E2  -1.015881422506987E1  -1.597141994268743E2  
                        -3.778404422009467E1   6.610354381464582E1  -3.172047858829241E1   8.334552952683308E1  -9.586310447247618  -1.664485689527454E2  -3.441628049260670E1   8.431313929734607E1  
                        -2.250928377579113E1   1.234832242868790E2  -9.606012434764358  -1.737355373809095E2  -1.837782284630238E1   1.291298751043231E2  -3.879907323157745E1   7.594152051252910E1  
                        -1.021066914865337E1  -1.522583095425437E2  -3.435059409470392E1   8.374112673520509E1  -3.857531321975860E1   8.198848385642418E1  -2.808635231828817E1   8.758809388330859E1  
                        
 1.016870870870871E10   -1.776032950109478E1   8.096768531350908E1  -3.802782043468582E1  -1.477711985401901E2  -2.219077605172038E1   7.857748336592916E1  -1.017286125970092E1  -6.909649217320451  
                        -3.814938848483070E1  -1.401039746876371E2  -3.703080826082935E1  -4.834974810952406E1  -9.529275922959595  -1.503620348650479E1  -3.437265316593624E1   7.243691409259890E1  
                        -2.233181084634339E1   7.871836372180177E1  -9.610861745122303  -2.284353055592817E1  -1.990136646501701E1   1.022067559678759E2  -3.811645914513706E1  -1.237095178679731E2  
                        -1.018364475046761E1  -8.767431354299196E-1  -3.426583082545209E1   7.123303873046277E1  -3.795084448590628E1  -1.168246920607377E2  -4.548864728867277E1   2.811070377916802E1  
                        
 1.023876876876877E10   -1.843892667302821E1   3.333521377005672E1  -3.798890880721996E1   6.742829512297086  -2.227833474593981E1   3.307955155791183E1  -1.013399385718593E1   1.443326167065749E2  
                        -3.804848981658274E1   1.448729217335212E1  -3.178948424056844E1   5.602125341541044E1  -9.667724127738756   1.367081988830151E2  -3.429483632448010E1   6.139238058700268E1  
                        -2.233828143994401E1   3.426778757368498E1  -9.717989713150823   1.290165791230055E2  -1.773346756420641E1   3.540820931610003E1  -3.795560743813650E1   2.104736110488101E1  
                        -1.019770117378254E1   1.514346022760457E2  -3.429363411913640E1   5.992574540425363E1  -3.801599243672641E1   2.722130842626170E1  -4.125517699554568E1   1.024380945028134E2  
                        
 1.030882882882883E10   -1.799399573136832E1  -6.778478023428892  -3.742292676693822E1   1.549118746705018E2  -2.215812063418729E1  -1.131423530832494E1  -1.015202529622088E1  -6.436048868066544E1  
                        -3.756089371779972E1   1.647433856074889E2  -3.875557721195696E1   6.975176265558713E1  -9.599368763590540  -7.136651382332852E1  -3.418968370160167E1   4.938334465234667E1  
                        -2.225316902913153E1  -9.663336142596625  -9.700089401585315  -7.876715529052434E1  -1.723698236667192E1  -1.244452877454044E1  -3.887716814871249E1   1.794738945368582E2  
                        -1.018666250285529E1  -5.625521351354774E1  -3.421531294582820E1   4.853347087786283E1  -3.921483505518206E1  -1.745017690097500E2  -3.347088362704292E1   5.310039460541113E1  
                        
 1.037888888888889E10   -1.781700864050078E1  -6.553786405737573E1  -3.849739039977175E1  -6.107647521482449E1  -2.215397106659540E1  -5.587396482540311E1  -1.018865692476227E1   8.782456147257663E1  
                        -3.853970702885110E1  -5.067755095707850E1  -3.645808529771885E1  -2.690966323717995E1  -9.640029206554855   8.026031568874997E1  -3.423630821120622E1   3.810248595668249E1  
                        -2.228314484986079E1  -5.472608339523538E1  -9.719308084403927   7.226913991556447E1  -1.786375671654762E1  -3.917031690402404E1  -3.822542048928306E1  -2.323893730460051E1  
                        -1.020092576792191E1   9.608069197811695E1  -3.423449680856332E1   3.663180746929977E1  -3.824746022944149E1  -1.766945587791255E1  -3.372801886125188E1   1.332294628278397E2  
                        
 1.044894894894895E10   -1.956300658466767E1  -1.068148124428221E2  -3.924959976774430E1   9.991616974413816E1  -2.213981396582885E1  -9.949950319860594E1  -1.013599471525207E1  -1.200813861137086E2  
                        -3.931864830437421E1   1.092790116502037E2  -3.688081635241396E1  -1.495892569446076E1  -9.697516028075890  -1.277074797679704E2  -3.414006538416081E1   2.639759201440509E1  
                        -2.223408245066140E1  -9.908934487969485E1  -9.755637235370189  -1.361249941652094E2  -1.651727182340636E1  -8.468211360980975E1  -3.797468714938715E1   1.232858672486514E2  
                        -1.016776735927105E1  -1.127615197166728E2  -3.422859274635596E1   2.461379621402741E1  -3.813078049808637E1   1.286966389463211E2  -3.248926228780938E1  -1.555747923810390E2  
                        
 1.051900900900901E10   -1.874221460919069E1  -1.377832017931362E2  -3.936685870582011E1  -1.082250371560081E2  -2.205566416487282E1  -1.440406184523870E2  -1.014810117412792E1   3.155595755802633E1  
                        -3.938097198119474E1  -9.928396237881393E1  -3.867594413005011E1  -2.199606007639693E-1  -9.729655202784519   2.372697392157467E1  -3.425038552122822E1   1.508450372402897E1  
                        -2.215831011165568E1  -1.430844742007313E2  -9.741660979355409   1.603526924781040E1  -1.805492630486728E1  -1.136121962320298E2  -3.933588231787726E1  -8.471509569625154E1  
                        -1.017767877752783E1   3.897147209777872E1  -3.426134935966428E1   1.325225584912247E1  -3.914720606532097E1  -7.792715565269207E1  -3.811588028345319E1  -2.918597639331233E1  
                        
 1.058906906906907E10   -1.831424604427441E1   1.710325541393382E2  -4.045183337790887E1   3.787603274503942E1  -2.210257376628629E1   1.706240591712279E2  -1.020975810603590E1  -1.761799089391260E2  
                        -4.050904214502312E1   4.643103582156205E1  -2.919331220799333E1  -4.987472056677989E1  -9.758934577630779   1.759893374050990E2  -3.423265304778118E1   4.190031186805507  
                        -2.218524528812704E1   1.720457327926066E2  -9.753367142484198   1.678161714888828E2  -1.971199513591415E1  -1.478586275206238E2  -3.923517333526866E1   6.930385289780647E1  
                        -1.028153378365807E1  -1.688722658189892E2  -3.426202233417502E1   2.362185784861451  -3.888240176643436E1   7.440826669632386E1  -3.750098997125683E1   1.242157992941638E2  
                        
 1.065912912912913E10   -2.294772964311589E1   1.437984125770384E2  -4.119406817257926E1  -1.528449970558528E2  -2.211098223432422E1   1.267773953413027E2  -1.018207290091763E1  -2.448896044743598E1  
                        -4.129810840710483E1  -1.435206909010992E2  -3.729021218325102E1  -3.682505976912421E1  -9.745478543777413  -3.251982892303535E1  -3.416309501421895E1  -7.784494116472395  
                        -2.206958660335722E1   1.287033629025947E2  -9.764274808633861  -4.026249267341864E1  -2.231407468955441E1   1.685625726815506E2  -4.050419939465207E1  -1.368785832301313E2  
                        -1.023530409170869E1  -1.647783426889122E1  -3.412862863643942E1  -8.800501792702583  -4.019957462338815E1  -1.299578972145872E2  -2.832967483348350E1  -1.788530024960696E2  
                        
 1.072918918918919E10   -2.324856866594767E1   1.143929526397312E2  -4.014234483906246E1   2.692474077848119  -2.184474952007800E1   8.223965995986031E1  -1.012562296629875E1   1.267793248330624E2  
                        -4.002552856638597E1   1.172938298503600E1  -3.012593598122439E1  -9.470572732606395E1  -9.792130740567554   1.192599529252447E2  -3.411962679638761E1  -1.960978108923140E1  
                        -2.191288729621842E1   8.355425566465613E1  -9.751123743435722   1.113462401952638E2  -2.450117481704676E1   1.479761143536728E2  -3.974453624450094E1   2.104595135258651E1  
                        -1.016706568256441E1   1.352409269681515E2  -3.409209925032324E1  -2.039617304635044E1  -3.946039266557894E1   2.802112475707764E1  -2.818159937451586E1  -1.154295435052540E2  
                        
 1.079924924924925E10   -2.538691735880135E1   6.078745150888862E1  -3.989473536533492E1   1.527746839890484E2  -2.187900847246893E1   3.719129359530351E1  -1.017974645187079E1  -8.142439629068392E1  
                        -3.987629358361508E1   1.614209230230479E2  -2.855008711942352E1  -7.556531546777779E1  -9.729954930826484  -8.909088588835191E1  -3.405234703040976E1  -3.166319655537659E1  
                        -2.190726009028405E1   3.841127699415146E1  -9.751494765401027  -9.691966740642545E1  -2.581167937850771E1   5.280513894677568E1  -3.970804291286678E1   1.692555841784293E2  
                        -1.018013198069777E1  -7.310687131545231E1  -3.404166602849457E1  -3.182879853710462E1  -3.967315394457096E1   1.794635739217342E2  -2.899091651415639E1  -1.207912749442122E2  
                        
 1.086930930930931E10   -3.182881651645442E1  -8.473553543632095  -4.007342513122156E1  -5.336082445439341E1  -2.188253729320310E1  -7.156856261324357  -1.015405400153442E1   7.030277276225701E1  
                        -4.000989298752349E1  -4.438878047230974E1  -3.201989725293825E1  -6.920568750489578E1  -9.816196411557206   6.221503145607650E1  -3.396433559621554E1  -4.314795590604796E1  
                        -2.190873677935510E1  -5.621487857502030  -9.806595471414820   5.501849340021383E1  -2.817473519356887E1   4.804187748926018  -3.993592865911085E1  -2.737200613629562E1  
                        -1.018507936167374E1   7.840543796620869E1  -3.390290578789051E1  -4.349027476478988E1  -4.005589523003440E1  -1.985233065122275E1  -3.260517158654420E1  -1.561258236029675E2  
                        
 1.093936936936937E10   -3.560263324812270E1  -1.169371303212098E2  -3.976898685642940E1   1.084670252002102E2  -2.170810258282028E1  -5.153389113451613E1  -1.020848123375433E1  -1.380395754003275E2  
                        -3.967472796080256E1   1.163912103827718E2  -2.608114413848425E1  -1.222088714430630E2  -9.824919987972644  -1.463288603593585E2  -3.389637665221256E1  -5.545284443066273E1  
                        -2.171506403296600E1  -5.001646745351321E1  -9.798074787178326  -1.533232101659764E2  -2.418847965905364E1  -1.792664065039687E1  -3.779314914650959E1   1.245510016781210E2  
                        -1.019512889122612E1  -1.300143656220938E2  -3.386043101661587E1  -5.571117474048527E1  -3.801286471043687E1   1.311282178648877E2  -2.666230720533712E1   1.691610826299578E2  
                        
 1.100942942942943E10   -2.594533203574991E1  -1.000260315644771E2  -3.879734724704386E1  -1.081215044263058E2  -2.174024048834890E1  -9.741086419716957E1  -1.026550651474404E1   1.345107761346559E1  
                        -3.891755203483234E1  -1.013776248850488E2  -2.721780895241890E1  -1.056857477785344E2  -9.827072996227441   5.173925803363606  -3.386492326576824E1  -6.727556368182297E1  
                        -2.172624269819207E1  -9.543613464977661E1  -9.816120409736740  -1.650114192501771  -2.254638946134981E1  -7.007837011118603E1  -3.871466464578464E1  -8.370543050527007E1  
                        -1.021930292357629E1   2.189150772337562E1  -3.384575457116112E1  -6.792291406671036E1  -3.887505979259378E1  -8.105501281809239E1  -2.834363701922952E1  -1.624030522044844E2  
                        
 1.107948948948949E10   -2.280818029201634E1  -1.512920400867237E2  -4.041476444217167E1   3.852304962087325E1  -2.172316651352191E1  -1.414719309892252E2  -1.022394652212886E1   1.650800687067044E2  
                        -4.063461279585234E1   4.608434500776692E1  -3.282902562793238E1  -1.440134498327209E2  -9.848328352780056   1.575360240020912E2  -3.389529206379513E1  -7.867863335646776E1  
                        -2.176736940956221E1  -1.397252289192052E2  -9.831054707488619   1.500368114599187E2  -2.489507973414471E1  -7.207979049875540E1  -3.890258491274931E1   7.558035182155120E1  
                        -1.025412699037116E1   1.735433675062346E2  -3.386083435605745E1  -7.972390801863102E1  -3.885227139565588E1   7.939937959904101E1  -3.485676853530990E1  -8.801375918131478E1  
                        
 1.114954954954955E10   -3.099424360585134E1  -1.449830375500030E2  -4.071259925241805E1  -1.498165766406487E2  -2.156249957365391E1   1.744942010181877E2  -1.024940617477621E1  -4.296018827342956E1  
                        -4.085052560140407E1  -1.401796286309760E2  -2.756050154667449E1  -1.485670357977926E2  -9.918115588885849  -5.108954207778595E1  -3.396435413260845E1  -9.035720522505744E1  
                        -2.161796612538530E1   1.762332259304082E2  -9.930051685020560  -5.866124451602794E1  -2.186005187547346E1  -1.112523258447267E2  -3.835724192158280E1  -1.397682709543702E2  
                        -1.023502945223376E1  -3.454615771776388E1  -3.391301253925938E1  -9.127868735344093E1  -3.816734586792924E1  -1.344919699266193E2  -3.417155223659967E1   1.383108854343050E2  
                        
 1.121960960960961E10   -2.335976786138270E1  -1.654493839738372E2  -3.929608616266577E1  -2.173905848115076  -2.160459808003688E1   1.291674300014052E2  -1.030928167300356E1   1.085093592727100E2  
                        -3.940445814392120E1   7.819596971082221  -3.066073820408865E1  -1.600875526625584E2  -1.000181036665473E1   1.006886576591239E2  -3.402866600789039E1  -1.020456590658396E2  
                        -2.157246875456929E1   1.310636137753083E2  -9.921210686687358   9.306414861077695E1  -2.246120596993713E1  -1.338325540412585E2  -3.944622244947745E1   9.662535545178908  
                        -1.030895160666129E1   1.170223270665001E2  -3.393843723467562E1  -1.029832383230286E2  -3.922029072884214E1   1.896364715185684E1  -2.585717993002233E1  -1.681120267288956E2  
                        
 1.128966966966967E10   -2.705370195838420E1   1.518836660199203E2  -4.015054228408457E1   1.515192922745447E2  -2.161255872122035E1   8.428883151196557E1  -1.032732434450891E1  -9.991466852239653E1  
                        -4.010449429198833E1   1.612211048445492E2  -3.493269122991473E1  -1.239644548609170E2  -1.000137075294974E1  -1.081936310355567E2  -3.399181791477510E1  -1.136668762542097E2  
                        -2.162487531106739E1   8.656678367904819E1  -9.957637772949182  -1.152683088282610E2  -2.267962152708351E1  -1.323835887426386E2  -4.002525825639098E1   1.710136260901670E2  
                        -1.030075806087884E1  -9.115726847181121E1  -3.391521804707981E1  -1.143358849118249E2  -3.976045388168515E1   1.799901942253812E2  -2.639071551380471E1  -1.474459764969671E2  
                        
 1.135972972972973E10   -2.661086411495608E1  -1.796425291613267E2  -3.940526153495969E1  -4.343211644094028E1  -2.152441822406035E1   4.045859057060620E1  -1.032982543069108E1   5.188887950463514E1  
                        -3.935783942116843E1  -3.355153482305938E1  -2.839813454706758E1   1.768850829789287E2  -1.006204369531254E1   4.404143140707377E1  -3.389929172391087E1  -1.247586000020222E2  
                        -2.154074589003420E1   4.228229398404206E1  -9.974679631133022   3.656102672611928E1  -2.351521752493037E1   1.775991897125781E2  -3.846620999449440E1  -3.548040357738504E1  
                        -1.035923467649034E1   6.050685989967923E1  -3.386204955523386E1  -1.252879108168175E2  -3.826433797537786E1  -2.668480654588063E1  -3.445594856659578E1  -1.494958811974561E2  
                        
 1.142978978978979E10   -2.337318092443200E1   1.471103099410543E2  -3.739727631099161E1   1.095214830654237E2  -2.146644301176115E1  -3.891105973436248  -1.038956349513055E1  -1.559939561092748E2  
                        -3.736713645424726E1   1.182830807345115E2  -3.285445936890794E1   1.740272803522456E2  -1.007009568990994E1  -1.645930814501808E2  -3.374686960721346E1  -1.358261826889793E2  
                        -2.141667251036812E1  -1.767451907329342  -9.979495220794341  -1.715984863069323E2  -2.398698734643314E1   1.633970205308781E2  -3.793810958459905E1   1.233456041069811E2  
                        -1.038840814079158E1  -1.479636713200790E2  -3.376834380703913E1  -1.368384888065330E2  -3.792736492001313E1   1.286032632897550E2  -3.314011005487404E1   1.175585200208389E2  
                        
 1.149984984984985E10   -3.538368321762640E1   1.280637954481111E2  -3.699884166587916E1  -1.098052494527160E2  -2.135044219377108E1  -4.960041318303180E1  -1.040545382141367E1  -3.814696892782426  
                        -3.699454964561807E1  -1.014031045823493E2  -3.781837429019735E1   1.484407221277167E2  -1.008547915205394E1  -1.297180883029640E1  -3.357975138591734E1  -1.478873450190555E2  
                        -2.128929893682469E1  -4.775753462194965E1  -1.004220057401584E1  -1.978590866222291E1  -2.624161609593508E1   1.449505456820123E2  -3.665827706076526E1  -8.454035242716711E1  
                        -1.039273553523441E1   3.517960823287111  -3.359427786404055E1  -1.490453721355199E2  -3.685976388363034E1  -7.911854517539112E1  -3.160466242239655E1   1.766752720957216E2  
                        
 1.156990990990991E10   -2.793151984689594E1   1.298538363760555E2  -3.771709898919225E1   4.802430115096780E1  -2.139539918768005E1  -9.302088666896746E1  -1.043651803533650E1   1.478055692734381E2  
                        -3.778523517291431E1   5.532271260315841E1  -4.318014043275247E1  -5.199622797039126E1  -1.010321962181100E1   1.389241888543793E2  -3.354317567755702E1  -1.600402542354218E2  
                        -2.141897651907479E1  -9.187905006122082E1  -1.001178093163142E1   1.315348938051277E2  -3.125860864694846E1   7.378990073342284E1  -3.632534645248008E1   6.672825011373712E1  
                        -1.046220465057880E1   1.553327773869798E2  -3.357375309435780E1  -1.610892159478479E2  -3.655676441579259E1   7.318257026056742E1  -4.289047798042128E1   1.722113122926897E2  
                        
 1.163996996996997E10   -2.941766172870795E1   5.524699887814811E1  -3.658598343588215E1  -1.579346695745769E2  -2.126870367991150E1  -1.370375789352198E2  -1.050111207937229E1  -6.060193483984877E1  
                        -3.664636907067909E1  -1.486664537722439E2  -3.628389969544328E1  -9.909372969567325E1  -1.012973962598965E1  -6.963213215256624E1  -3.358758110219774E1  -1.723657705393922E2  
                        -2.127499936194132E1  -1.355047541825533E2  -1.007400440289175E1  -7.661117087819227E1  -2.799465473052672E1   3.259191978487605E1  -3.634617646308174E1  -1.408927385343286E2  
                        -1.048812651725596E1  -5.241076471689602E1  -3.356713122157571E1  -1.729716071251613E2  -3.659846212205570E1  -1.360316798517742E2  -3.563758007831871E1   2.322405554333342E1  
                        
 1.171003003003003E10   -3.125482847171474E1  -9.768723410509696E1  -3.613368969533349E1  -1.327900062844883E1  -2.110562475309463E1   1.768175782582875E2  -1.048858214070343E1   9.072566786634685E1  
                        -3.613623892907744E1  -3.412904685564115  -3.537942742397954E1   1.771846890018194E2  -1.012078021617401E1   8.224566903482715E1  -3.362749373392703E1   1.761321212028509E2  
                        -2.105981395237676E1   1.790467770686902E2  -1.010854049219220E1   7.505387382900447E1  -2.851453925619544E1  -7.767626844203667E1  -3.643012357632998E1   5.140441957103569  
                        -1.051432991504524E1   9.930864813732080E1  -3.358588030811971E1   1.748216014011101E2  -3.628222234517924E1   9.105054974300820  -3.768307520920994E1   6.696827219452194E1  
                        
 1.178009009009009E10   -3.491457409441119E1  -1.468445147943517E2  -3.722654772833096E1   1.379019209424899E2  -2.125485015593709E1   1.320287725251265E2  -1.054593284672242E1  -1.174310993564645E2  
                        -3.728692913858630E1   1.479168574476897E2  -3.436324328653657E1  -1.389738358053826E2  -1.019500865909353E1  -1.259211349818997E2  -3.369579107045855E1   1.646086119030787E2  
                        -2.123668968629096E1   1.337531073178178E2  -1.012230537016991E1  -1.339221588859731E2  -2.246241108138307E1  -8.286601996144337E1  -3.720788061707917E1   1.605650092282397E2  
                        -1.052106990568052E1  -1.090577184033150E2  -3.358967035193079E1   1.628656661725961E2  -3.692504254949259E1   1.650425795658633E2  -4.713099568505911E1   1.608053143615708E2  
                        
 1.185015015015015E10   -2.480282604374580E1  -1.249631105093409E2  -3.650144060234688E1  -5.985751621547598E1  -2.110278674982358E1   8.969232690836773E1  -1.059912292556076E1   3.413525685375905E1  
                        -3.660682259055594E1  -5.049768218542322E1  -3.459088980518177E1  -2.133978294924251E1  -1.028020686688468E1   2.687248170611150E1  -3.370588728945888E1   1.528156864940057E2  
                        -2.112487830019191E1   9.002556908931310E1  -1.022667659388366E1   1.732043473937109E1  -1.956538125601264E1  -1.101184966818391E2  -3.593574416063557E1  -4.538467734645602E1  
                        -1.061026111620241E1   4.286501474724911E1  -3.361694351362623E1   1.520954793069570E2  -3.574570259206818E1  -3.700534247399176E1  -4.250541309452589E1  -6.637560867618822E1  
                        
 1.192021021021021E10   -2.139142903356369E1  -1.706877950148833E2  -3.501822898891006E1   9.096619325283920E1  -2.087270939198375E1   4.380806666867586E1  -1.061022251782522E1  -1.738937297599406E2  
                        -3.509991212393516E1   9.984127238602646E1  -3.709578110660608E1   3.102735045799474E1  -1.032387111122322E1   1.782901580745900E2  -3.364444833072931E1   1.419814728794656E2  
                        -2.088415642847725E1   4.433882542623334E1  -1.021174718583682E1   1.692344074277672E2  -2.210783236935241E1  -1.591491669727637E2  -3.541880531340456E1   9.989720761298554E1  
                        -1.067621292528490E1  -1.652498264394879E2  -3.355221598641177E1   1.414007201535378E2  -3.540971914210564E1   1.098426815619993E2  -3.197930098189243E1  -3.206401952310466E1  
                        
 1.199027027027027E10   -2.670561711827371E1  -1.788452979638921E2  -3.511142014018703E1  -1.248649769296240E2  -2.106110553287265E1  -2.689869446912111  -1.061342702532013E1  -2.193654202087513E1  
                        -3.513247433311674E1  -1.153243757082461E2  -3.092719939429946E1  -1.225980662495376E2  -1.034197519307725E1  -3.130071139761822E1  -3.340102481652535E1   1.303977505383598E2  
                        -2.101429945013342E1  -6.977939122993785E-1  -1.024216066518580E1  -3.835216354541139E1  -1.963578332429689E1  -1.584304829166760E2  -3.556730943166867E1  -1.032012509976216E2  
                        -1.062504179247651E1  -1.369993549741619E1  -3.332953702507768E1   1.297664840302655E2  -3.580086679567696E1  -9.516369248511811E1  -3.397776904530453E1  -1.094913155692806E2  
                        
 1.206033033033033E10   -2.218801867207283E1   1.655560739432618E2  -3.497425179488188E1   3.316300371552733E1  -2.100880136375210E1  -4.411909478756396E1  -1.069886802581794E1   1.303496763189343E2  
                        -3.490147723673427E1   4.085686713821132E1  -3.059273610697199E1  -6.112355207012207E1  -1.037636053670648E1   1.212615934985951E2  -3.325497192822247E1   1.181418777194632E2  
                        -2.097545138646265E1  -4.507955245179577E1  -1.033094811261544E1   1.125696073056725E2  -2.128104583703651E1   1.610068039447638E2  -3.426131208154295E1   5.124336309548297E1  
                        -1.069455771259787E1   1.377214532930960E2  -3.324644577399504E1   1.180478843379165E2  -3.440823847850781E1   5.967293332149504E1  -3.499427318526799E1  -7.834585401250739E1  
                        
 1.213039039039039E10   -2.673242273996407E1   1.060154196887426E2  -3.350816999132962E1  -1.789358543180830E2  -2.064500091267152E1  -8.921882894393367E1  -1.071678338428788E1  -7.788449265314371E1  
                        -3.348640994109126E1  -1.709236672007392E2  -3.949484316200068E1  -6.331491681665926E1  -1.030937815071155E1  -8.687046287720678E1  -3.300568190912138E1   1.062201132484154E2  
                        -2.064339633086964E1  -9.003546660544868E1  -1.030089036161680E1  -9.566694047212906E1  -2.594131328759019E1   1.286861837983447E2  -3.378680814217452E1  -1.613446892844371E2  
                        -1.077290939592207E1  -6.997782650750320E1  -3.312214758250901E1   1.064705570743779E2  -3.394696305329087E1  -1.528376783152016E2  -3.677970957954317E1  -4.184661612504753E1  
                        
 1.220045045045045E10   -3.447367754488914E1   9.811411926418883E1  -3.357643111110691E1  -3.509457905523580E1  -2.082678883771734E1  -1.349705051791526E2  -1.080734941169850E1   7.397884305579537E1  
                        -3.349577130019690E1  -2.718479405759566E1  -3.333271911963985E1  -1.497776539083771E2  -1.036212402671157E1   6.485952445435797E1  -3.296017804216341E1   9.389391332626039E1  
                        -2.075802550963832E1  -1.361399653044729E2  -1.034031033775353E1   5.598840586608080E1  -2.333918675720881E1   1.173732034556386E2  -3.425374560384240E1  -9.182725370187226  
                        -1.075286861707671E1   8.164987357935806E1  -3.296957340432149E1   9.342992207725227E1  -3.412105608424901E1  -2.259971931018149  -3.239951270450708E1  -1.702570686442768E2  
                        
 1.227051051051051E10   -2.962612728811254E1   6.712977073165963E1  -3.428918610313500E1   1.163361728664337E2  -2.074384271145200E1  -1.784989569557194E2  -1.073699455386535E1  -1.344451619396872E2  
                        -3.428351263600121E1   1.240177625368518E2  -3.514195397055476E1  -1.173528870007688E2  -1.043507230102321E1  -1.432322282835476E2  -3.289284136029968E1   8.070287655378067E1  
                        -2.070879682469022E1   1.798476273483844E2  -1.036896233697632E1  -1.527261250420162E2  -3.571780799905584E1   5.242661807453659E1  -3.325790304294849E1   1.406063300603393E2  
                        -1.075600163429572E1  -1.264904190544838E2  -3.298403157028878E1   8.046167864806463E1  -3.336263911727372E1   1.485647494432240E2  -3.306283682057092E1  -1.592412969401022E2  
                        
 1.234057057057057E10   -3.081438985775960E1  -3.167829342491596E1  -3.382634842813420E1  -8.792800532208401E1  -2.048902163383099E1   1.369384689309009E2  -1.076957700256793E1   1.725272613316744E1  
                        -3.370092363244081E1  -8.012194596695387E1  -3.955239677825370E1  -4.670846699829980E1  -1.038951106653845E1   8.512211681348530  -3.310443531981318E1   6.784486272565232E1  
                        -2.049257320554781E1   1.351281895559281E2  -1.036758736340830E1  -1.210490104382815  -3.471277652539166E1  -5.287588251685863E1  -3.369009421937472E1  -7.402767456604123E1  
                        -1.075257222858218E1   2.532091029219188E1  -3.308559886021175E1   6.827767263678096E1  -3.333341278850084E1  -6.390661337825245E1  -3.659954819224584E1  -1.106263617464223E2  
                        
 1.241063063063063E10   -4.105689564086178E1  -7.604826618266412E1  -3.337062824211182E1   5.917417039131103E1  -2.046163028603264E1   9.061161832102111E1  -1.085711183734236E1   1.694176453116876E2  
                        -3.335490518752093E1   6.612363858327261E1  -6.137827215351469E1  -5.435389719874918E1  -1.041649731519798E1   1.597356746782887E2  -3.317143889318981E1   5.694067943675010E1  
                        -2.043193694244879E1   8.886741295574589E1  -1.042690945189401E1   1.505461210093320E2  -3.330024138124342E1  -6.382062485971235E1  -3.396473359295815E1   7.763245709995088E1  
                        -1.080312830315949E1   1.770030918800900E2  -3.309266469679146E1   5.678291713374372E1  -3.365744284654742E1   8.754057575219738E1  -3.493826638266666E1   1.146245590361667E2  
                        
 1.248069069069069E10   -3.448738946987036E1  -3.591446741802972E1  -3.375563912327694E1  -1.493668919446367E2  -2.050096314047726E1   4.529003170378167E1  -1.084224868608450E1  -3.868589690957322E1  
                        -3.364173696334471E1  -1.420178725509154E2  -3.349106392415374E1  -1.130141937228849E2  -1.049560327838043E1  -4.812647831151262E1  -3.312886818816949E1   4.529019436488640E1  
                        -2.042977726293189E1   4.375000041318209E1  -1.044304645807127E1  -5.790116801206986E1  -2.827302475742772E1  -1.312039331291343E2  -3.363485041359347E1  -1.306783603454834E2  
                        -1.084257645580493E1  -3.123764450904484E1  -3.303800165428883E1   4.543365090995116E1  -3.339036278873618E1  -1.200582612028845E2  -3.520952139859772E1   1.614513603731883E2  
                        
 1.255075075075075E10   -2.871452019075710E1  -1.214318849658279E2  -3.341883724277489E1   6.318037181607505  -2.055837324812273E1   9.563497401069244E-1  -1.091165416747450E1   1.129494462953768E2  
                        -3.331099809541543E1   1.376379022009400E1  -4.085739554115513E1   1.299060855817073E2  -1.047701263795540E1   1.027197574526272E2  -3.288536274189047E1   3.402930531533721E1  
                        -2.047829082608941E1  -5.065989043287162E-1  -1.047239109239924E1   9.370194449866914E1  -2.261314243169890E1  -1.251659544462943E2  -3.319319780268313E1   2.176122146215576E1  
                        -1.085411269863637E1   1.203251099600575E2  -3.285463972674150E1   3.373072960623417E1  -3.347400521236389E1   3.084616268584864E1  -3.199182310274845E1  -1.599166250826307E2  
                        
 1.262081081081081E10   -3.385746343510569E1  -1.748239405238427E2  -3.225608438072182E1   1.553039893556118E2  -2.028352300066970E1  -4.384820442804021E1  -1.095145713321970E1  -9.502066944169619E1  
                        -3.226686449376157E1   1.629278339699077E2  -3.803915780494767E1  -1.143238662361603E2  -1.057496444683391E1  -1.055477136462400E2  -3.264648398916735E1   2.188756759113768E1  
                        -2.020701689167658E1  -4.497978564247766E1  -1.053833542415917E1  -1.143730879531121E2  -2.360231429941731E1  -1.531897188209688E2  -3.217208280652583E1   1.756565222709651E2  
                        -1.092241160728101E1  -8.783786989756750E1  -3.271905672494577E1   2.148023999305399E1  -3.254652658989559E1  -1.760568092794489E2  -4.349692972301415E1   7.827409273036005E1  
                        
 1.269087087087087E10   -2.793013888319035E1  -1.697786581159863E2  -3.207955922553227E1  -6.017755079195877E1  -2.038730026219388E1  -9.215934501764809E1  -1.096563916709344E1   5.680020309084944E1  
                        -3.202799890016247E1  -5.217900031968593E1  -3.409820017985275E1  -3.444180912293656E1  -1.066648719945674E1   4.592869818270124E1  -3.244737473285158E1   9.470751304770008  
                        -2.031873945080221E1  -9.250217477730921E1  -1.058606703429932E1   3.722331016544610E1  -2.053699925038984E1  -1.598792995921302E2  -3.213456915693338E1  -3.841770700628333E1  
                        -1.099002516632868E1   6.410694925412450E1  -3.260320352652718E1   9.193904789543158  -3.241929796169044E1  -3.153640039640180E1  -2.901024290107309E1   8.239778264528236E1  
                        
 1.276093093093093E10   -2.167593189053222E1   1.423810737641731E2  -3.243709677416711E1   9.148134905682423E1  -2.064738402806904E1  -1.340842087205685E2  -1.101804038289815E1  -1.513747666269268E2  
                        -3.238860729437513E1   9.930966397566417E1  -3.921970358332284E1   1.792281328802053E2  -1.068071445302880E1  -1.625468600308631E2  -3.242730217403575E1  -3.118843933108897  
                        -2.048648297266721E1  -1.347021381999072E2  -1.061281237838706E1  -1.708711371120076E2  -1.901270042174055E1   1.616711774370799E2  -3.251590904327005E1   1.171296650354259E2  
                        -1.097080631420976E1  -1.443191661779652E2  -3.246442536227534E1  -3.949805909556347  -3.256149719224653E1   1.238183373876135E2  -2.779511721238785E1   1.487462825511825E2  
                        
 1.283099099099099E10   -2.212696306039695E1   1.177194637764810E2  -3.214922374161737E1  -1.189392917828825E2  -2.019896880851850E1  -1.790366336919241E2  -1.105560465331540E1   2.065775465135416E-2  
                        -3.210307408579570E1  -1.106265895601054E2  -2.950834965810317E1  -1.177638758674298E2  -1.074188004829705E1  -1.054902359168409E1  -3.253181530550317E1  -1.638336002993447E1  
                        -2.011491247660092E1   1.799410119666424E2  -1.068928655784274E1  -1.963279989889290E1  -2.266788070421790E1   1.574130997622085E2  -3.152474401529608E1  -9.488309086063440E1  
                        -1.103477279235878E1   7.590194515392169  -3.248629429724937E1  -1.768577421116714E1  -3.148163157186478E1  -8.694902631616849E1  -3.273651873712775E1   1.683958262752494E2  
                        
 1.290105105105105E10   -2.082709765596332E1   1.042097837522600E2  -3.201581921321804E1   2.778535853158775E1  -2.035696780901878E1   1.343507476625212E2  -1.110530123666074E1   1.517500987337685E2  
                        -3.200444710860533E1   3.631564532573041E1  -3.091143701832802E1  -8.900332323301333E1  -1.082034768006661E1   1.419142870923834E2  -3.265012956380141E1  -2.912993486851333E1  
                        -2.029950057482742E1   1.326080587253171E2  -1.074029899064237E1   1.320958008607795E2  -1.913573234037136E1   1.112585759006291E2  -3.213450747291043E1   4.851843816361637E1  
                        -1.108589523691176E1   1.600127496438015E2  -3.261180867272986E1  -3.019681501914133E1  -3.205509868587208E1   5.834047894476458E1  -3.464369240222419E1   2.461435418907719E1  
                        
 1.297111111111111E10   -2.048063577938959E1   6.540702174648499E1  -3.254380048893124E1   1.765590689050806E2  -2.055270805387442E1   9.071802174432527E1  -1.117924281826089E1  -5.612381390499340E1  
                        -3.245139881987343E1  -1.744599934037009E2  -4.194457254724056E1   4.909570506392463E1  -1.075724338163882E1  -6.627181413138430E1  -3.269953448867558E1  -4.145834341645725E1  
                        -2.047660353943470E1   8.933399038091635E1  -1.067079945934992E1  -7.609401382653324E1  -2.187428772909261E1   5.236249083863552E1  -3.276900666778285E1  -1.559864482861596E2  
                        -1.113490876692147E1  -4.808716192431392E1  -3.268248176607361E1  -4.216853034575107E1  -3.265390657776702E1  -1.458270719323776E2  -3.459208159234655E1   5.035206298808686E1  
                        
 1.304117117117117E10   -2.279045141373751E1   8.350031069549273  -3.289633873946907E1  -2.844118176520230E1  -2.026544201441314E1   4.619994691019236E1  -1.117187298022533E1   9.578205657194079E1  
                        -3.281866559020684E1  -1.921318157473021E1  -2.797015154270650E1  -1.225868254497912E2  -1.084714220236269E1   8.534400663032281E1  -3.274549516468732E1  -5.421575012070829E1  
                        -2.017172201386444E1   4.442791861757535E1  -1.073448130063664E1   7.459225063781538E1  -2.521291784471325E1   2.836774513225076E1  -3.154203750698614E1  -8.322630369198130  
                        -1.112445289385307E1   1.039187456776835E2  -3.270759051803310E1  -5.446605202961328E1  -3.154739256146936E1   1.747084233915616  -4.474296278026925E1   1.767253931065529E2  
                        
 1.311123123123123E10   -2.311607162640960E1  -2.641179001745801E1  -3.206395594184233E1   1.226562549495290E2  -2.024851971587087E1  -8.130750248816303E-1  -1.122438177941536E1  -1.129325191916190E2  
                        -3.205114642305631E1   1.325448795901138E2  -2.562209074330708E1  -1.107734335662275E2  -1.087649531872551E1  -1.226004520891638E2  -3.280891483544635E1  -6.637460091121605E1  
                        -2.017809951897225E1  -2.430768474392872  -1.086552542883170E1  -1.334426794678075E2  -1.846828826814561E1  -2.982407329418186E1  -3.197966608117465E1   1.347238035539993E2  
                        -1.119483107964093E1  -1.044404744268805E2  -3.286666429291113E1  -6.607614570099344E1  -3.214801954817107E1   1.463938156316327E2  -2.873821433971294E1  -1.229957306292953E2  
                        
 1.318129129129129E10   -1.919621294678005E1  -7.521976317187904E1  -3.197921282847192E1  -8.979668624052763E1  -2.039408058202738E1  -4.447457930352262E1  -1.129129715422670E1   3.873987760788856E1  
                        -3.189071847856243E1  -7.999253605427681E1  -4.313667927857554E1   2.436307847527610E1  -1.081066553603344E1   2.941599133205010E1  -3.275073081781918E1  -7.737224408559602E1  
                        -2.038052616427231E1  -4.615204569763520E1  -1.078383496101793E1   1.822029339301087E1  -1.859545430510239E1  -9.498910865346414E1  -3.283726691312301E1  -6.424390148263201E1  
                        -1.121556280715254E1   4.793318632078393E1  -3.271592391441712E1  -7.726892998967681E1  -3.298475653901251E1  -5.339331881492084E1  -3.168084030573363E1  -6.320192307574413E1  
                        
 1.325135135135135E10   -1.787436508147338E1  -1.293789762547134E2  -3.241963974010426E1   6.111603591603718E1  -2.034582347502940E1  -9.052922535032779E1  -1.129260635521608E1  -1.688780758227502E2  
                        -3.234345034700836E1   7.056890624374672E1  -2.792188572560071E1  -1.155266374586500E2  -1.091912361796185E1   1.798150417851598E2  -3.258097941477985E1  -8.960890885099568E1  
                        -2.035092606293557E1  -9.224949061591597E1  -1.089770865076211E1   1.692042396290049E2  -1.733829281709938E1  -1.212902135451041E2  -3.149563553469448E1   8.641588558293275E1  
                        -1.123099660587460E1  -1.604978862828739E2  -3.258085224250748E1  -8.963602383929435E1  -3.164046557366468E1   9.529289180192070E1  -4.171905696104991E1   5.597213973523909E1  
                        
 1.332141141141141E10   -1.805052778193673E1  -1.646392075538879E2  -3.192553273900681E1  -1.473951139814187E2  -2.053969446013690E1  -1.353166938118411E2  -1.127685300383773E1  -1.767592673662978E1  
                        -3.178549797834120E1  -1.379723576963065E2  -2.456070586257809E1  -1.104536653561784E2  -1.108182451355920E1  -2.785340891546801E1  -3.246791015866117E1  -1.017752021436497E2  
                        -2.049643974962515E1  -1.371552006858801E2  -1.099221515847046E1  -3.855051134118187E1  -1.447597374012630E1  -1.603689657213375E2  -3.184464755689325E1  -1.251899056583003E2  
                        -1.129641781049350E1  -9.366877204330381  -3.255269685851571E1  -1.032748754736834E2  -3.202794224869456E1  -1.179418928280955E2  -2.878481127194786E1   1.753336482751640E2  
                        
 1.339147147147147E10   -1.679969168915514E1   1.640243933715519E2  -3.158564341886090E1  -2.015253133212954  -2.054283616831603E1   1.787565712281348E2  -1.144597450249569E1   1.341505631751904E2  
                        -3.156140832847583E1   7.257806797352900  -2.752223640495759E1  -1.167422229142159E2  -1.109708667040763E1   1.238148132750326E2  -3.263320915764878E1  -1.154577734285774E2  
                        -2.047493742939086E1   1.773921517340116E2  -1.103001901097800E1   1.137768669118661E2  -1.532813707388207E1   1.614540812492652E2  -3.186646372297868E1   2.557357202231634E1  
                        -1.146330250715120E1   1.420311488871961E2  -3.270122755720747E1  -1.167020189952874E2  -3.193416933884165E1   3.343255610705084E1  -2.487858112019448E1  -1.350647556439406E2  
                        
 1.346153153153153E10   -1.627886858438831E1   1.063082242246314E2  -3.254518557980461E1   1.459909205012737E2  -2.098074669875551E1   1.346266721611439E2  -1.151829808313935E1  -7.203215839770233E1  
                        -3.260020642352702E1   1.548262466370670E2  -2.518295455465939E1  -1.341266733584044E2  -1.131532141014416E1  -8.492124105254813E1  -3.295563293768119E1  -1.269219564742409E2  
                        -2.088184487879749E1   1.333190532525854E2  -1.112340431400297E1  -9.428568176750363E1  -1.404099569898635E1   1.232743364725258E2  -3.197382341320257E1   1.730745196971259E2  
                        -1.157920352415774E1  -6.510194177066670E1  -3.295074629954554E1  -1.290402557612225E2  -3.204115299899166E1  -1.781939908972135E2  -2.693413529671901E1  -8.761692099768558E1  
                        
 1.353159159159159E10   -1.643593010624446E1   6.295088325342802E1  -3.280859651047538E1  -5.937232932525509E1  -2.087785561094595E1   9.251188782427558E1  -1.150208305465017E1   7.985460561189146E1  
                        -3.291662954316409E1  -5.031327092253711E1  -2.510143732203303E1  -1.287875127020436E2  -1.124800975230685E1   6.779771119899661E1  -3.300990684805985E1  -1.398021632055799E2  
                        -2.074169189061222E1   9.139851806705275E1  -1.108098671520968E1   5.798943681046642E1  -1.481050153703954E1   8.799287042655628E1  -3.222784675860660E1  -3.624798252061982E1  
                        -1.147535994220434E1   8.688609149930647E1  -3.298707835299947E1  -1.412621104784812E2  -3.229533645325821E1  -2.646748168033921E1  -3.284565647111684E1  -1.341315044129339E2  
                        
 1.360165165165165E10   -1.518676718751580E1   3.118612729756686E1  -3.245449084746912E1   8.915491773139092E1  -2.071036733056409E1   4.631118734708097E1  -1.158842575134005E1  -1.287864564496510E2  
                        -3.253389980746477E1   9.795777252788741E1  -2.443694392509112E1  -1.464728475102160E2  -1.125551135124029E1  -1.405507447795943E2  -3.333486623093243E1  -1.523394131238021E2  
                        -2.060398294282407E1   4.480742719138355E1  -1.114558545958237E1  -1.503603187573269E2  -1.573498169041515E1   4.565058616927659E1  -3.220473389224262E1   1.127407582845592E2  
                        -1.156420628484308E1  -1.212936489843885E2  -3.326019681110468E1  -1.534931381365534E2  -3.223308919546767E1   1.222545922435202E2  -2.245210442849959E1  -1.425003370702706E2  
                        
 1.367171171171171E10   -1.388313502306399E1  -1.121918419089827E1  -3.304359624886354E1  -1.229960973377867E2  -2.108034101285965E1   1.244001951946121  -1.173703454728687E1   2.393622569396955E1  
                        -3.316087350726294E1  -1.138249552120274E2  -2.290715780299481E1  -1.488148553052918E2  -1.133478027139169E1   1.224276475884084E1  -3.345196320561530E1  -1.627049097041110E2  
                        -2.096313629782944E1   1.214938462071376E-1  -1.123002028124085E1   2.102482867155632  -1.456084630571933E1  -4.582345461317645  -3.272517163621614E1  -9.792261031471139E1  
                        -1.165603100359884E1   3.131561267337005E1  -3.345766185243188E1  -1.630236469637324E2  -3.291944324969725E1  -8.780895125600266E1  -2.007802702064297E1  -1.426217445195587E2  
                        
 1.374177177177177E10   -1.584131496184213E1  -5.658157180527531E1  -3.369960111399680E1   3.222153490579728E1  -2.089875010872163E1  -4.078372008077390E1  -1.156663601197375E1   1.757323534737301E2  
                        -3.360393406787174E1   4.216992856886972E1  -2.478469807743802E1  -1.525395437426373E2  -1.114638447517710E1   1.639080103150909E2  -3.326796653724377E1  -1.734383600340842E2  
                        -2.085572316450208E1  -4.221137387765057E1  -1.108764640507272E1   1.535375250445197E2  -1.654776395060554E1  -5.339377739758550E1  -3.295501973777222E1   5.874805384959940E1  
                        -1.151844961549223E1  -1.761680531695934E2  -3.320006784374625E1  -1.744877113351706E2  -3.299938111785141E1   6.811797479051208E1  -2.428241148774928E1  -1.446996391282283E2  
                        
 1.381183183183183E10   -1.693186283786165E1  -1.041796958298366E2  -3.314740912721003E1  -1.750818444378775E2  -2.062562202693151E1  -8.760273067118223E1  -1.162068898697830E1  -3.293199742744061E1  
                        -3.310240858951286E1  -1.662270095177060E2  -2.389907251166185E1  -1.727894070822496E2  -1.127811629587494E1  -4.547613946113157E1  -3.318600680628870E1   1.733527999025862E2  
                        -2.055136987846711E1  -8.846955516241960E1  -1.122240672501103E1  -5.570106179239333E1  -1.498280489987801E1  -9.907306566683805E1  -3.213906512215564E1  -1.510690734231659E2  
                        -1.152176974868224E1  -2.528472347841996E1  -3.322320922171716E1   1.723121185532331E2  -3.221543021232425E1  -1.416584126278783E2  -2.432828358703416E1  -1.613949135412936E2  
                        
 1.388189189189189E10   -1.467869651994919E1  -1.531781247138538E2  -3.310462412366245E1  -2.800565790053735E1  -2.109675350179358E1  -1.338760124572249E2  -1.170943084302849E1   1.183705478837127E2  
                        -3.299626752200025E1  -1.835116227908178E1  -2.085859480664267E1  -1.723513715172155E2  -1.144845546673752E1   1.074478342048560E2  -3.346750281413388E1   1.622824034573001E2  
                        -2.108993097793846E1  -1.348574123964543E2  -1.138004862305225E1   9.699252080739397E1  -1.249545877379511E1  -1.447911766861540E2  -3.297077903321801E1  -5.427561269710129  
                        -1.168525144561439E1   1.266658099853680E2  -3.350815525804209E1   1.607836144834570E2  -3.308692285813109E1   1.823435886403893  -1.982396890643625E1   1.760956057570952E2  
                        
 1.395195195195195E10   -1.346144827349253E1   1.556940724609765E2  -3.359245476567607E1   1.213261301590892E2  -2.114727300787981E1  -1.758826886953224E2  -1.172076671639481E1  -8.931108366883022E1  
                        -3.370265852074419E1   1.305648792106378E2  -2.483555166835699E1   1.789584244355218E2  -1.132783114609522E1  -1.010645330089321E2  -3.322662961693054E1   1.509108392655706E2  
                        -2.106447493058559E1  -1.766486781270371E2  -1.124265996944381E1  -1.116146108064579E2  -1.400859483038966E1   1.722032201122063E2  -3.315002845011062E1   1.538842478775524E2  
                        -1.170654173238097E1  -8.068342981882361E1  -3.334710349174721E1   1.492476000638039E2  -3.322979726537826E1   1.625449867424002E2  -1.972969545966484E1   1.755340797477603E2  
                        
 1.402201201201201E10   -1.352583573014352E1   1.198696455571061E2  -3.363520728876486E1  -8.470923884083719E1  -2.108478724945084E1   1.392578782433944E2  -1.159559606261038E1   6.241879821154708E1  
                        -3.374175961682447E1  -7.488191522499618E1  -2.420230992520783E1   1.494584393542724E2  -1.155568613861208E1   5.071802808551698E1  -3.334256949757969E1   1.376483198076634E2  
                        -2.095161001984390E1   1.380557019198776E2  -1.141508783995307E1   3.947972800175219E1  -1.266641324458028E1   1.411515743822521E2  -3.237717687068257E1  -5.867608196918093E1  
                        -1.169376149802786E1   7.102759552508711E1  -3.344736705202029E1   1.358521784827069E2  -3.231803928614372E1  -5.032277475979517E1  -2.393545973307899E1  -1.742332858429230E2  
                        
 1.409207207207207E10   -1.280161698282755E1   8.856884680127654E1  -3.365552300112651E1   6.213207959810824E1  -2.139311670924011E1   9.434739746300829E1  -1.185284583447712E1  -1.452942473770013E2  
                        -3.373224669446914E1   7.186880693868449E1  -2.229936891552350E1   1.602072609808364E2  -1.165807257529465E1  -1.558994347146111E2  -3.380251842282671E1   1.263879563735302E2  
                        -2.131369553526229E1   9.334846331107785E1  -1.148474336793908E1  -1.672051506249175E2  -1.308067686543781E1   9.817814816866365E1  -3.316197824042603E1   8.552881030036343E1  
                        -1.191093759030074E1  -1.368726494252010E2  -3.381519287010191E1   1.244922014083695E2  -3.322195564572149E1   9.560315664926723E1  -2.227914103045514E1   1.610642587262321E2  
                        
 1.416213213213213E10   -1.342709479735618E1   4.449881921479494E1  -3.431536091886346E1  -1.488634063835323E2  -2.130905636882127E1   5.278038310883124E1  -1.197391617606222E1   7.479272511864737  
                        -3.432569214501610E1  -1.389127702508283E2  -2.375416005571000E1   1.614579577357706E2  -1.149308070769054E1  -3.381845901547459  -3.396850558674041E1   1.153706035945418E2  
                        -2.130916358766666E1   5.103819040077233E1  -1.139772996632971E1  -1.556586403810361E1  -1.491495632082000E1   5.150457486961084E1  -3.392842427996521E1  -1.208688763963155E2  
                        -1.191008844389927E1   1.629922389682640E1  -3.385636951893527E1   1.141537808648174E2  -3.409273892978308E1  -1.092141729772957E2  -2.059269786984725E1   1.496938721042423E2  
                        
 1.423219219219219E10   -1.568692816503396E1  -2.940838815668386  -3.523090200328856E1   6.326386785327556  -2.109408794647046E1   8.796594562521902  -1.179948522033206E1   1.592794730471566E2  
                        -3.528110347751364E1   1.650083953087605E1  -2.518997603042083E1   1.230651699651831E2  -1.154778394500703E1   1.481965246821135E2  -3.392634358276249E1   1.037026912404386E2  
                        -2.108822718495456E1   6.970974760546913  -1.143839201872767E1   1.355929136926429E2  -1.462459339425216E1   1.574764076445484E1  -3.306937255841805E1   3.158224486315866E1  
                        -1.173949791145871E1   1.687827928920264E2  -3.384226934307970E1   1.028320467172577E2  -3.337895049634069E1   4.401991585484043E1  -2.113849782753610E1   1.529194885349134E2  
                        
 1.430225225225225E10   -1.580857995212368E1  -5.130863814445814E1  -3.465999578907876E1   1.604199232420930E2  -2.100648992571920E1  -3.612431261220043E1  -1.174966993174118E1  -4.979838399558356E1  
                        -3.460754083884077E1   1.707982552609931E2  -2.401249447670774E1   1.444126409370628E2  -1.152373872425557E1  -5.923401175986345E1  -3.382799571627096E1   9.256003473198378E1  
                        -2.100322716188601E1  -3.832091713996357E1  -1.137861143204930E1  -7.214985924922939E1  -1.519626716311743E1  -3.986719047524127E1  -3.385016946826804E1  -1.779949878940097E2  
                        -1.174071329193068E1  -4.005719461422484E1  -3.380983459377702E1   9.182913234964155E1  -3.406661742639790E1  -1.676459799653499E2  -2.424567355824931E1   1.365770287768364E2  
                        
 1.437231231231231E10   -1.364655113360027E1  -1.034301888280317E2  -3.480724784743075E1  -5.257915245238149E1  -2.107436119297762E1  -8.132965375583802E1  -1.182159659055801E1   1.025774572950166E2  
                        -3.476820323992703E1  -4.191884160649399E1  -2.580190579690532E1   1.359374001913330E2  -1.140058594948947E1   9.197965869878502E1  -3.374615377163340E1   8.105866353584803E1  
                        -2.106232394133386E1  -8.292233234405701E1  -1.140504362787498E1   7.939820219904325E1  -1.463616242701643E1  -8.999401984965309E1  -3.400985472699473E1  -2.240270227748012E1  
                        -1.181345714154293E1   1.116211194155343E2  -3.378781828752050E1   8.028941772731459E1  -3.419252537601766E1  -1.308553304292041E1  -2.186129311625175E1   1.313186121134524E2  
                        
 1.444237237237237E10   -1.313209523419598E1  -1.478741710705253E2  -3.571052198538409E1   1.011290592929665E2  -2.117045444222851E1  -1.251246908094269E2  -1.173933305460647E1  -1.053629858060407E2  
                        -3.573243931272748E1   1.112878235274953E2  -2.583041684938765E1   1.127223959790634E2  -1.143658642772367E1  -1.167048411487101E2  -3.366434107366920E1   7.014834968524826E1  
                        -2.113220782211621E1  -1.262919496484090E2  -1.142954696789871E1  -1.286708206120351E2  -1.411448354177458E1  -1.288556924973644E2  -3.408531215668865E1   1.288901063005905E2  
                        -1.179524267053346E1  -9.542927108787779E1  -3.374641071358726E1   6.884779047524411E1  -3.405788157920612E1   1.378794590051123E2  -2.045272423172477E1   1.305654205570638E2  
                        
 1.451243243243243E10   -1.360610073207709E1  -1.792760423132878E2  -3.505843678275954E1  -1.046534835453029E2  -2.101105677807900E1  -1.705196713644981E2  -1.173134175728778E1   4.614095727752535E1  
                        -3.522975282733128E1  -9.438531443484330E1  -2.788795955220266E1   1.044202176906058E2  -1.147824441880734E1   3.433033478575998E1  -3.371456776188170E1   5.716251826726806E1  
                        -2.103647392287533E1  -1.710962195509333E2  -1.148752351551631E1   2.350731797624792E1  -1.399849860756800E1  -1.733431228484004E2  -3.408630647477634E1  -8.093670881895257E1  
                        -1.176587321422543E1   5.576458217455242E1  -3.375114636291602E1   5.637472064502133E1  -3.406655744329724E1  -7.122391316744141E1  -2.049164854280613E1   1.215420737759973E2  
                        
 1.458249249249249E10   -1.365287086862101E1   1.422468009267179E2  -3.511588278873038E1   4.285449579558387E1  -2.118032033224215E1   1.447495680229399E2  -1.183215417097075E1  -1.618455815740913E2  
                        -3.516164022387260E1   5.253073290213271E1  -3.223432135447457E1   8.580762984381099E1  -1.163145628323476E1  -1.741534482431563E2  -3.388555144857308E1   4.518878387251969E1  
                        -2.117417189014175E1   1.444826740543581E2  -1.154379238380947E1   1.759992685704082E2  -1.324323003731387E1   1.505034108577013E2  -3.427679492301246E1   6.794944561669719E1  
                        -1.192587054112836E1  -1.519475273917022E2  -3.400250568675875E1   4.546748032436577E1  -3.418050039667092E1   7.776331972943308E1  -2.206362247371172E1   1.092940469075901E2  
                        
 1.465255255255255E10   -1.462445935062118E1   9.425357780014078E1  -3.630349535152629E1  -1.666489592498439E2  -2.126010137474867E1   1.022236229908902E2  -1.181909029538416E1  -9.027838522621753  
                        -3.632844019294928E1  -1.577428799590421E2  -3.218437881466628E1   7.969547658179249E1  -1.158613477848702E1  -2.219585244441054E1  -3.404164278004193E1   3.447016365181843E1  
                        -2.128064192774605E1   1.019141796813234E2  -1.154515352371788E1  -3.096930817616289E1  -1.454973064712624E1   1.090132171060579E2  -3.504923330563687E1  -1.423008115734539E2  
                        -1.192074751273778E1   1.131677058577060  -3.400742323860290E1   3.530812003283597E1  -3.505363039057339E1  -1.308553560761297E2  -2.341735793247143E1   1.033912171362535E2  
                        
 1.472261261261261E10   -1.589542372101694E1   5.086156639537951E1  -3.652181137359325E1  -1.057605664787875E1  -2.104482223025983E1   5.829670475592632E1  -1.173901316538563E1   1.431044486436627E2  
                        -3.646272393959161E1  -2.669490583371194  -3.635062775588635E1   1.326073970130508E2  -1.156473755396125E1   1.290231719254489E2  -3.393905309042384E1   2.277149575936383E1  
                        -2.101804831670270E1   5.838546845696641E1  -1.145531998175879E1   1.207535905837698E2  -1.564996096799831E1   6.959866831177709E1  -3.535713395340351E1   1.404549805829037E1  
                        -1.183695009915353E1   1.526055564147214E2  -3.394842732831683E1   2.377685718042061E1  -3.550218914965095E1   2.540186294997979E1  -2.147869679804777E1   8.926917688876644E1  
                        
 1.479267267267267E10   -1.599792200574644E1   9.244932184573202  -3.676340199131136E1   1.425740815492483E2  -2.094948230068199E1   1.366375512316534E1  -1.171291641160692E1  -6.575276074877560E1  
                        -3.678998542385138E1   1.505353228524241E2  -3.965472206642903E1   2.219180585663026E1  -1.162988787839686E1  -7.876039213426640E1  -3.402056949929459E1   1.020397971071491E1  
                        -2.091498824323304E1   1.292148261978451E1  -1.155373470062390E1  -8.745825178217399E1  -1.560979200784107E1   3.443751266127087E1  -3.466726725945042E1   1.638005556579371E2  
                        -1.182576498198063E1  -5.551727780721245E1  -3.399748406692525E1   1.238950450827105E1  -3.488792492528748E1   1.753597412753760E2  -2.022078702442175E1   8.613214543898280E1  
                        
 1.486273273273273E10   -1.611106569120079E1  -3.964085155234596E1  -3.693991200318276E1  -6.590425672091853E1  -2.092153421732543E1  -3.056243695903086E1  -1.177953198642189E1   8.580839464308225E1  
                        -3.692796496426996E1  -5.846645017406443E1  -3.406031994044606E1   6.444861399411316E1  -1.148199057768059E1   7.287731929208394E1  -3.400115047586241E1  -5.609115603834137E-1  
                        -2.096347075730706E1  -3.121408286435597E1  -1.152659705019573E1   6.510384563306421E1  -1.761652881464709E1  -3.045235321679276E1  -3.579648652812054E1  -4.342167515061841E1  
                        -1.179996422682489E1   9.628149085797878E1  -3.396173334310279E1   2.039537276672253  -3.604891496110607E1  -3.453238887340041E1  -2.247111076777892E1   8.700198259567212E1  
                        
 1.493279279279279E10   -1.651927378190350E1  -9.081490751029305E1  -3.763972296343697E1   8.739787065202930E1  -2.075057755034900E1  -7.550226180452212E1  -1.170850654274465E1  -1.225816725371028E2  
                        -3.761119352979969E1   9.597889320953868E1  -4.345053472786444E1  -1.166176576874030E2  -1.150121826851834E1  -1.357894086841302E2  -3.374299134775545E1  -1.305357556185600E1  
                        -2.078586711866743E1  -7.494990250844458E1  -1.147841075229373E1  -1.436363888504347E2  -1.820072690698266E1  -6.402413076980871E1  -3.519236761575263E1   1.164851907739816E2  
                        -1.176029233303888E1  -1.119025148958293E2  -3.386782995194191E1  -9.802871430444020  -3.549992908965554E1   1.253695175894919E2  -2.136115523870614E1   8.040977768365930E1  
                        
 1.500285285285285E10   -1.732233890007956E1  -1.329005726973093E2  -3.737502573030371E1  -1.155358514306984E2  -2.069884941563665E1  -1.203918471681705E2  -1.164495925885934E1   2.938948779999221E1  
                        -3.730349352633930E1  -1.074484446182950E2  -3.453117025629374E1  -5.491982193303714E1  -1.144789651985698E1   1.566443863484237E1  -3.384058192763649E1  -2.467733146136845E1  
                        -2.075175118483875E1  -1.205881989712047E2  -1.154705982815193E1   7.873886369710030  -1.672973785191734E1  -1.156487564584009E2  -3.496802468127229E1  -9.691973466204702E1  
                        -1.176184409160524E1   3.997268495061675E1  -3.393433091121445E1  -2.229108555249703E1  -3.501411868848366E1  -8.791671174408540E1  -2.057667403548042E1   7.084554186219054E1  
                        
 1.507291291291291E10   -1.594192303631467E1  -1.769202153819497E2  -3.693057093613970E1   3.330656931827492E1  -2.069599570339677E1  -1.644269309598714E2  -1.177325891464220E1  -1.788823140289651E2  
                        -3.679809600883189E1   4.256325083846112E1  -4.263073546786413E1  -1.161833153421089E2  -1.149332024440861E1   1.685132281332802E2  -3.380067861813513E1  -3.537904939322003E1  
                        -2.073921940347143E1  -1.648210757035364E2  -1.153839641631480E1   1.599612768995947E2  -1.605733703394830E1  -1.656440478107879E2  -3.616005311890243E1   5.554121014382917E1  
                        -1.179643238228004E1  -1.685017178065567E2  -3.393621184497228E1  -3.371870489661086E1  -3.584191757017867E1   6.489413614665830E1  -2.274720686145135E1   6.643282320679666E1  
                        
 1.514297297297297E10   -1.524079792485246E1   1.381109319504724E2  -3.792889635298528E1  -1.790537781054823E2  -2.072868292363789E1   1.509673468582022E2  -1.180169071394771E1  -2.649634171355643E1  
                        -3.773732145676755E1  -1.693301119476001E2  -3.230687538228348E1  -1.565911898050397E2  -1.147995111945970E1  -3.942102973298093E1  -3.383029213579597E1  -4.587734099582875E1  
                        -2.081831415231709E1   1.506252642766715E2  -1.151096442681195E1  -4.737943378468300E1  -1.657315776709437E1   1.677760003265313E2  -3.588042252023080E1  -1.506168305698801E2  
                        -1.189139960535309E1  -1.671904144015023E1  -3.386916191851048E1  -4.436727461734994E1  -3.577475468640673E1  -1.406664771975951E2  -2.278330192039730E1   6.859002411385337E1  
                        
 1.521303303303303E10   -1.596137895451733E1   1.080601101423859E2  -3.814162512775144E1  -1.842225195402951E1  -2.069633099391108E1   1.084627461414084E2  -1.172528064688948E1   1.261485305082606E2  
                        -3.795352961778899E1  -1.047967242102481E1  -3.315558925564751E1  -1.339823551346495E2  -1.153526370266210E1   1.121198295006660E2  -3.389062887930806E1  -5.840434959540064E1  
                        -2.072634854642633E1   1.059407213024362E2  -1.159901407140143E1   1.025220322964974E2  -1.644561707779943E1   1.247450806566236E2  -3.595606702587121E1  -4.847325282397840  
                        -1.183690936581189E1   1.349564866472630E2  -3.388540601830712E1  -5.775326468866696E1  -3.597129128070989E1   7.467967283893844  -2.589319272688882E1   6.526035849495339E1  
                        
 1.528309309309309E10   -1.629168100429441E1   8.033920235990938E1  -3.797348739937596E1   1.300874396815888E2  -2.060516962311339E1   6.276160531395011E1  -1.175805188310989E1  -8.314444413521910E1  
                        -3.783084041197051E1   1.407633837549574E2  -2.958949410092163E1   1.618279133621652E2  -1.151322497337222E1  -9.522877364542563E1  -3.386949389471214E1  -6.892790821120084E1  
                        -2.071325043808204E1   6.170670299290136E1  -1.155244499997309E1  -1.078315503245662E2  -1.758094276489287E1   9.083011631238500E1  -3.665916742378267E1   1.505692046472167E2  
                        -1.185551894314399E1  -7.326554753934924E1  -3.397354973101970E1  -7.082753151478742E1  -3.687395061878864E1   1.621183070310087E2  -2.620477114445463E1   4.565924362760372E1  
                        
 1.535315315315315E10   -1.926631661743642E1   4.515538002786214E1  -3.843786474187427E1  -7.645175873553860E1  -2.053312969650264E1   1.874969290082156E1  -1.173200716283830E1   6.821781096814372E1  
                        -3.855039645454976E1  -6.439483384285026E1  -2.759755361856005E1   1.760326466050346E2  -1.161427271236613E1   5.709693617270858E1  -3.384751049699645E1  -8.072377100422919E1  
                        -2.052422441085339E1   1.700835886184350E1  -1.154828895012779E1   4.353262710675795E1  -1.890645128689763E1   5.800142162534564E1  -3.650641573211964E1  -5.733219184709699E1  
                        -1.181931580903301E1   7.891839837499715E1  -3.392711253019643E1  -8.243998221174876E1  -3.666937922893128E1  -4.219606062354637E1  -2.481613237643211E1   6.262140578666597E1  
                        
 1.542321321321321E10   -2.422179935609828E1  -1.583052053946730E1  -3.883425857915030E1   8.105394569978672E1  -2.038786592681620E1  -2.601995921767092E1  -1.175007339980633E1  -1.403427386761306E2  
                        -3.894325551789805E1   9.335868108904371E1  -3.240893468623082E1   1.443347416146131E2  -1.145783308639398E1  -1.513466857798199E2  -3.381259206818305E1  -9.212590219601553E1  
                        -2.052526491824401E1  -2.739569782734850E1  -1.158473537214343E1  -1.646004457304486E2  -2.161691571933725E1  -8.186072385679113E-1  -3.722644074908396E1   9.882917422299170E1  
                        -1.177414812715217E1  -1.294631402795272E2  -3.386258135756093E1  -9.407255335700398E1  -3.729185008104965E1   1.095797643808342E2  -2.428164802979046E1   9.063775614754718E1  
                        
 1.549327327327327E10   -2.293694923686426E1  -7.849355835781221E1  -3.834182699689819E1  -1.228428315681607E2  -2.025146459171278E1  -7.065948583470984E1  -1.173871312742442E1   1.126467506563646E1  
                        -3.841827639144080E1  -1.116630736607221E2  -2.688448688899409E1   1.276997218314581E2  -1.156926171930527E1   7.835671037700202E-2  -3.368393723269828E1  -1.042008606054506E2  
                        -2.033419055364716E1  -7.206991627847715E1  -1.160593839796482E1  -1.307142740692645E1  -2.122433249007598E1  -3.103835052656688E1  -3.638346128879368E1  -1.018836639413029E2  
                        -1.177186042831747E1   2.187924309679685E1  -3.384371435104362E1  -1.057356505307347E2  -3.636439278558758E1  -9.122470761110182E1  -2.606021481131506E1   9.863671944162310E1  
                        
 1.556333333333333E10   -2.040934220356703E1  -1.236292168048256E2  -3.805467200073107E1   3.028938247695223E1  -2.024774946371405E1  -1.162715922212992E2  -1.173725334250029E1   1.628840899530437E2  
                        -3.788449472483380E1   4.220954025516761E1  -2.915564561461016E1   1.573731753541788E2  -1.151168092596771E1   1.519010940439079E2  -3.366584967826454E1  -1.162566758528606E2  
                        -2.032083338941127E1  -1.167516334461843E2  -1.164598446574734E1   1.391095056358517E2  -2.179742851910545E1  -9.326463149408762E1  -3.629266827518789E1   4.705031562864551E1  
                        -1.179552150031006E1   1.740307468618865E2  -3.379981856956621E1  -1.171056896694898E2  -3.640754347700393E1   5.634951014016722E1  -2.573892886296191E1   7.593757503051303E1  
                        
 1.563339339339339E10   -1.876057092015469E1  -1.642043290969065E2  -3.845403613670350E1   1.798599601241645E2  -2.032275130837106E1  -1.603488885747507E2  -1.182262277728803E1  -4.477645341294105E1  
                        -3.843449588147025E1  -1.686300955904158E2  -3.589004663871550E1   1.238472593477654E2  -1.152195091962196E1  -5.644639035728850E1  -3.366351039685301E1  -1.276993763739025E2  
                        -2.040313851756824E1  -1.610766671728889E2  -1.160181334664605E1  -6.906861219350611E1  -2.193917927298370E1  -1.467235526419893E2  -3.700669040544545E1  -1.577352355044653E2  
                        -1.186631608025581E1  -3.424565075294419E1  -3.376863992897298E1  -1.287944119884164E2  -3.692484157206151E1  -1.484272509128112E2  -2.307844874312857E1   8.218527779560679E1  
                        
 1.570345345345345E10   -1.939505068088426E1   1.688580238737895E2  -3.835002374522995E1  -2.148857577361054E1  -2.018487291292330E1   1.559084953270495E2  -1.184659267037960E1   1.070850126285749E2  
                        -3.831618745477429E1  -9.792159507376949  -3.054064002682361E1   1.233746584429741E2  -1.150926777856999E1   9.460413595439937E1  -3.371474996467977E1  -1.401258029959071E2  
                        -2.026621863631149E1   1.544294884926604E2  -1.164238262718255E1   8.240650954413947E1  -2.066646544461973E1  -1.621979757058602E2  -3.657540237075035E1  -5.160130305757845  
                        -1.187459585976520E1   1.172449136430240E2  -3.382396919902992E1  -1.409942714804946E2  -3.652237866025475E1   4.642009150713093  -2.352191498986745E1   9.347913275654091E1  
                        
 1.577351351351351E10   -1.936003757770826E1   1.445195675302448E2  -3.756493571126288E1   1.307653152766158E2  -2.017834446964736E1   1.099722510235713E2  -1.181690344105767E1  -1.013550270531585E2  
                        -3.766653408103878E1   1.435309075143591E2  -2.660814141688479E1   1.546046705120388E2  -1.163872907577452E1  -1.132141342554190E2  -3.376618547423587E1  -1.516570298333814E2  
                        -2.020602524737049E1   1.090425548007735E2  -1.166611693983602E1  -1.259701670055547E2  -2.020675704980370E1   1.413981827700217E2  -3.694226454460047E1   1.390374796222417E2  
                        -1.188560803514146E1  -9.098558239653141E1  -3.390459285511038E1  -1.527932592432790E2  -3.684989168191731E1   1.502986434420649E2  -2.576446246694177E1   1.134795466634784E2  
                        
 1.584357357357357E10   -2.003548902358935E1   1.032320722112425E2  -3.784214542838623E1  -8.154840482758453E1  -2.022793233632750E1   6.583033888446467E1  -1.188825737387279E1   5.035438365287798E1  
                        -3.801690366340729E1  -6.857936175636922E1  -3.510973023698461E1   1.312481767258693E2  -1.165015449818182E1   3.875415903097461E1  -3.383735709391899E1  -1.629512234494902E2  
                        -2.027480321001675E1   6.511847929718937E1  -1.165052106529916E1   2.554011446169486E1  -2.163323733359775E1   1.179074096731697E2  -3.816530750320828E1  -6.090424742979427E1  
                        -1.192422820429133E1   6.124149414214143E1  -3.385590520036654E1  -1.641986358203912E2  -3.800519191484855E1  -4.847939072522888E1  -2.657846564524393E1   9.910055547245202E1  
                        
 1.591363363363363E10   -2.396245113507111E1   6.816567829350601E1  -3.835847046630435E1   7.908391368570439E1  -2.007605270057630E1   2.143154879133597E1  -1.185272779657210E1  -1.576356219017375E2  
                        -3.833449528215858E1   9.271731350769684E1  -2.866351810764900E1   1.061120771052572E2  -1.164675582737544E1  -1.705544743824621E2  -3.382491967601217E1  -1.744369255763255E2  
                        -2.007368025267671E1   2.118731466631452E1  -1.172938045275545E1   1.772615122743700E2  -2.096012585901667E1   9.832728787149704E1  -3.668003916054818E1   9.514773486976678E1  
                        -1.191329347591337E1  -1.467164743842118E2  -3.382660649812170E1  -1.753999956637075E2  -3.670154628105138E1   1.069167389799039E2  -2.383340991759913E1   7.599229661893904E1  
                        
 1.598369369369369E10   -2.351694933503428E1   3.455887889405074E1  -3.721489519846875E1  -1.261976222431444E2  -1.997536986576320E1  -2.349272139906706E1  -1.189548173140842E1  -6.470649671481100  
                        -3.730587084002364E1  -1.120286061132744E2  -2.761925682873451E1   1.276872617749886E2  -1.169176128963865E1  -1.767369587310822E1  -3.377976833259866E1   1.737315535030087E2  
                        -2.008955516754132E1  -2.401177733885710E1  -1.171890351729918E1  -3.092610423186278E1  -2.273270688108900E1   4.144409434113262E1  -3.689983256162209E1  -1.161192302586587E2  
                        -1.198951627570888E1   4.991871663047218  -3.383839313641165E1   1.726557507476981E2  -3.701119718920133E1  -1.037816140096151E2  -2.104869672147000E1   8.878389129765507E1  
                        
 1.605375375375375E10   -2.316504660199317E1  -1.393897741851561E1  -3.694523069451674E1   2.203335620542699E1  -1.999559485271816E1  -6.838668255263187E1  -1.192971713372453E1   1.452058383993104E2  
                        -3.670128568422474E1   3.652699729235179E1  -2.975500261962083E1   1.063347430950330E2  -1.167801873154468E1   1.335174452972878E2  -3.366973572004875E1   1.619410441775190E2  
                        -2.000333264803756E1  -6.836902911390223E1  -1.169743829071292E1   1.203557645413589E2  -2.510142809485692E1   3.113669708789473E1  -3.680693079471147E1   4.336833034323468E1  
                        -1.197900518961541E1   1.573027254813739E2  -3.377211229854544E1   1.614113065728416E2  -3.698494831236505E1   5.650796476196133E1  -2.324956882010496E1   9.878348623741817E1  
                        
 1.612381381381381E10   -2.878812125885099E1  -6.144609633759619E1  -3.705674529198543E1   1.755126040986928E2  -1.994092757770498E1  -1.130791936936246E2  -1.188351993047486E1  -6.310611857188197E1  
                        -3.695194566236512E1  -1.705629741465075E2  -2.982557138168940E1   7.714619274113700E1  -1.170596325603609E1  -7.486826949746265E1  -3.354964713084645E1   1.504237187414003E2  
                        -1.998230867563452E1  -1.131513525957315E2  -1.174309415398167E1  -8.779840429069535E1  -2.870588304897698E1  -2.422727466290139E1  -3.582209063237574E1  -1.642599678510033E2  
                        -1.193257422798579E1  -5.112847787727691E1  -3.369167594032377E1   1.493184046510649E2  -3.591282772755082E1  -1.523911847961618E2  -3.026965523313745E1   9.413961176425028E1  
                        
 1.619387387387387E10   -3.065760303541394E1  -1.111411705188238E2  -3.633609963786661E1  -2.989591224289432E1  -1.990297812254401E1  -1.578871284029317E2  -1.193529908693757E1   8.894069804684828E1  
                        -3.608405485563942E1  -1.657043534024464E1  -3.121172414210711E1   9.447149848310762E1  -1.172514584830596E1   7.660842161609570E1  -3.354641685827605E1   1.383090602140078E2  
                        -1.987878894624947E1  -1.576275984526196E2  -1.177656844851634E1   6.366312784326752E1  -2.859614729174476E1  -8.685248783380278E1  -3.581573418767272E1  -1.232885081064904E1  
                        -1.198238788213188E1   1.005647059243362E2  -3.367948814259421E1   1.369274269487600E2  -3.577603275683883E1  -1.788502457335304  -2.420978589342503E1   6.914208407664245E1  
                        
 1.626393393393393E10   -2.499308320107526E1  -1.783458471171234E2  -3.583235116393605E1   1.194965621272852E2  -1.975869507545237E1   1.574828599661869E2  -1.192232545707772E1  -1.194053192758278E2  
                        -3.580273625618339E1   1.326036683443497E2  -3.376370717465388E1   7.673120674857935E1  -1.166877337008778E1  -1.319357996292194E2  -3.353219154238241E1   1.260946977446470E2  
                        -1.982502986419266E1   1.568902487097290E2  -1.182006681204745E1  -1.444913233404292E2  -2.770569717993945E1  -1.379651638863653E2  -3.560553617738977E1   1.407326554130468E2  
                        -1.198301072431434E1  -1.083354926390232E2  -3.369490102616246E1   1.251388260567426E2  -3.571504364764923E1   1.497772765964014E2  -2.320759523068085E1   7.204414524233731E1  
                        
 1.633399399399399E10   -2.104723422218986E1   1.377940379933173E2  -3.629351910204198E1  -9.217067181439602E1  -1.976063736417929E1   1.119632075853525E2  -1.194987454990993E1   3.266567412780693E1  
                        -3.620679046146143E1  -7.991939648658729E1  -2.875119707995330E1   6.638132588257109E1  -1.178789004181317E1   1.908078646901133E1  -3.356593110995026E1   1.143483639657632E2  
                        -1.989388449245912E1   1.113883443338322E2  -1.183051337524921E1   7.292261870799266  -2.382864584502571E1   1.716658370483269E2  -3.587306456986362E1  -6.953920545176194E1  
                        -1.208288532387781E1   4.368316410490088E1  -3.376165986989075E1   1.135371439160989E2  -3.567939962748111E1  -6.053872644026310E1  -2.810500171013900E1   1.060975602414658E2  
                        
 1.640405405405405E10   -2.119157420774828E1   1.204028625438542E2  -3.656329711726190E1   6.480732992988541E1  -1.980674581416568E1   6.898935105175953E1  -1.200865101136078E1  -1.756197656834402E2  
                        -3.641896427392768E1   7.641799711138320E1  -3.956689213464851E1   3.988512132033075E1  -1.182519162773327E1   1.710312929584081E2  -3.367904949843321E1   1.024931468149305E2  
                        -1.988446982763930E1   6.731715642864802E1  -1.183472801672034E1   1.588500612675631E2  -2.209638574465836E1   1.590382223020146E2  -3.599805521413147E1   8.575391314033821E1  
                        -1.210285988651429E1  -1.646883549038301E2  -3.376397605175536E1   1.020210582398184E2  -3.585468643358590E1   9.734955047952515E1  -3.554528593265354E1   6.753776178461158E1  
                        
 1.647411411411411E10   -2.059675534878847E1   1.017643217623857E2  -3.584200905762241E1  -1.394752943428671E2  -1.959613475046184E1   2.337598554937798E1  -1.207360415121772E1  -2.345044002054626E1  
                        -3.564319362268812E1  -1.289299662107392E2  -3.162800148508369E1   4.136103737925188E1  -1.179099097514559E1  -3.740453442438558E1  -3.379693048351884E1   9.090488813104344E1  
                        -1.965409589564142E1   2.230700764936201E1  -1.193666104678664E1  -4.932548952187926E1  -2.061018050466098E1   1.248471603501463E2  -3.526765803887287E1  -1.254907402343824E2  
                        -1.208108146690401E1  -1.330235315971597E1  -3.383464377111289E1   9.065349607634930E1  -3.509036502886474E1  -1.128150568027633E2  -2.691280021263279E1   4.635560364380219E1  
                        
 1.654417417417417E10   -2.253388531586046E1   5.884193071684025E1  -3.549900402573860E1   8.875961257980158  -1.976101413797080E1  -2.190414742778489E1  -1.207419959503214E1   1.287077342578908E2  
                        -3.541178554498483E1   1.918510108598654E1  -2.982321227841022E1   6.167743472007583E1  -1.194024855181407E1   1.146796872962251E2  -3.376534885691778E1   8.018416339186155E1  
                        -1.982139433364212E1  -2.383728122306152E1  -1.191299141000648E1   1.023308823245151E2  -2.386872226891191E1   9.602234933602233E1  -3.576262520078063E1   2.414746438311585E1  
                        -1.216872982240592E1   1.387762725285762E2  -3.378348497602580E1   7.999816680103186E1  -3.596737329289655E1   3.793729605391463E1  -2.401359547842355E1   7.140275550571982E1  
                        
 1.661423423423423E10   -2.963809226426404E1   4.283185556586761E1  -3.577572844034376E1   1.647009633645259E2  -1.972862433187517E1  -6.516224001734318E1  -1.201932486677815E1  -7.988647571524440E1  
                        -3.558814770706909E1   1.753840382591513E2  -4.373011281729471E1  -6.452422664887989  -1.191258565836209E1  -9.356624044599485E1  -3.353699896898048E1   6.812851390821371E1  
                        -1.973058605378778E1  -6.665084601215514E1  -1.196077860513888E1  -1.060739962884792E2  -2.120364301126281E1   8.738365914337443E1  -3.492293041851767E1  -1.719490800406155E2  
                        -1.211596738372579E1  -6.912575666156810E1  -3.355911024902328E1   6.845731089891437E1  -3.517414539226213E1  -1.597195697343424E2  -2.885493188196433E1   1.061914004778605E2  
                        
 1.668429429429429E10   -3.084616155214735E1   1.239652973474965E1  -3.424112173728268E1  -4.141139780278034E1  -1.938689469101624E1  -1.104347140297706E2  -1.206497759949943E1   7.152243061535101E1  
                        -3.435068288450106E1  -3.121939145817698E1  -3.299527622776156E1  -4.125560278838517E1  -1.196852163896761E1   5.823945037154042E1  -3.343264535145148E1   5.602851305415334E1  
                        -1.941663809366171E1  -1.121106728651591E2  -1.199956551653845E1   4.557093241206014E1  -2.573645236540285E1   3.584281274138081E1  -3.354978651718895E1  -2.578370157102798E1  
                        -1.212383019304611E1   8.251629459658437E1  -3.352943669208413E1   5.601425437554945E1  -3.385362247468550E1  -1.324672572889206E1  -3.722003209525509E1   3.639514951484831E1  
                        
 1.675435435435435E10   -2.914937890226901E1  -1.189012820868859E2  -3.363346422237806E1   1.041036274451120E2  -1.956061237786884E1  -1.565191658203331E2  -1.213367482700012E1  -1.369042106780333E2  
                        -3.381833087950882E1   1.153396811404707E2  -3.911863491648522E1   6.833113491105016E1  -1.194828526034359E1  -1.496445950153257E2  -3.334245904445516E1   4.444893539153240E1  
                        -1.954065754461414E1  -1.577817663180877E2  -1.200125940281707E1  -1.628930521983427E2  -3.169147833301146E1   3.451142377761794E1  -3.426153814439424E1   1.229769344572530E2  
                        -1.221146953565821E1  -1.252267951923725E2  -3.344663101561695E1   4.355946276468067E1  -3.450197585598742E1   1.348833695590932E2  -2.921065051359594E1   2.657478375740868E1  
                        
 1.682441441441441E10   -2.734797283447903E1   1.765665232482178E2  -3.406739684263908E1  -1.092444137997895E2  -1.953163068536413E1   1.593455470848943E2  -1.215701580292924E1   1.515358283013153E1  
                        -3.438806229592970E1  -9.672685477321041E1  -3.646200874108023E1   1.741356601761614E2  -1.198779471664012E1   1.703024911319317  -3.331223746431987E1   3.275934367396009E1  
                        -1.957767554161710E1   1.582950681439315E2  -1.199473848069667E1  -1.119959082345117E1  -2.882494284815432E1   1.010715470077727E1  -3.401118049840492E1  -7.943697326755272E1  
                        -1.217378090689032E1   2.645379592018661E1  -3.343914054212711E1   3.122545999389130E1  -3.409943114006970E1  -6.729770937211094E1  -2.670095693786428E1   5.872362355330375E1  
                        
 1.689447447447447E10   -3.027866246181959E1   1.614468168971324E2  -3.421616586741352E1   4.424787356424648E1  -1.933616016215587E1   1.141402464776018E2  -1.216817925705071E1   1.665995992277656E2  
                        -3.443876670028089E1   5.731841318966522E1  -3.348561711199692E1  -9.947805035208698E1  -1.201971444638284E1   1.534524295027151E2  -3.345609667900226E1   2.033877868395974E1  
                        -1.938670446370095E1   1.132539600180210E2  -1.203807040082916E1   1.403571231943097E2  -2.871580827539061E1  -1.682865213950619E2  -3.312393373870494E1   6.914996855468141E1  
                        -1.224154142453593E1   1.779609304326584E2  -3.347782843091633E1   1.920657298756901E1  -3.303799395219141E1   8.022577447027538E1  -2.894147376271215E1   7.362084341540191E1  
                        
 1.696453453453453E10   -2.964078937151526E1   1.309766095017091E2  -3.365963287989897E1  -1.629802465801487E2  -1.938120864331901E1   6.900703666385992E1  -1.222941284433698E1  -4.154415048449811E1  
                        -3.383521343757828E1  -1.506900557940587E2  -4.222424507733070E1  -1.042334521029686E2  -1.201219270010811E1  -5.510415854214902E1  -3.345654760175494E1   8.576068704594526  
                        -1.937168220535040E1   6.761305643497299E1  -1.207841643400992E1  -6.764027417323318E1  -3.207931164886267E1   1.695726178041454E2  -3.380074891575114E1  -1.438631065126732E2  
                        -1.223386455839749E1  -2.997409928968752E1  -3.346318194880668E1   8.059047272052490  -3.368513975688263E1  -1.319317597689939E2  -3.593732489777731E1   1.549721520029617E1  
                        
 1.703459459459459E10   -2.735896997962997E1   3.019342066568169E1  -3.392935046390665E1  -1.453520055616871E1  -1.938072460681525E1   2.396865574874481E1  -1.223175726028829E1   1.106310779543300E2  
                        -3.416415097249971E1  -2.409786835286329  -2.933275987678012E1  -1.742914436147828E2  -1.205931273060115E1   9.625587977159593E1  -3.350032751710850E1  -3.590638892255711  
                        -1.949082990564565E1   2.307202733419926E1  -1.211617458106964E1   8.390075347472227E1  -2.930925119959447E1   1.591078640712813E2  -3.394388073061119E1   1.272537028783996E1  
                        -1.227572759987950E1   1.223262247922233E2  -3.349042737699918E1  -3.316187280190866  -3.377131147833993E1   2.470885455047837E1  -2.573039760910604E1   1.589955241648322E1  
                        
 1.710465465465465E10   -2.799751247439533E1  -8.075546572365186  -3.414603667843873E1   1.420337299884897E2  -1.934540578971722E1  -2.104468903035805E1  -1.222265801563595E1  -9.738142260191196E1  
                        -3.423548838279731E1   1.538623304172873E2  -3.033028392975619E1  -1.558038886302805E2  -1.211713484415819E1  -1.124887773664995E2  -3.340572481975569E1  -1.501408107295286E1  
                        -1.943532740412683E1  -2.191458099742259E1  -1.212994317970801E1  -1.238735435956105E2  -2.335057678037214E1   1.163955084757082E2  -3.303884511341063E1   1.618658554067027E2  
                        -1.228854899140079E1  -8.636884287698676E1  -3.345043878680539E1  -1.481593605056726E1  -3.308527079551195E1   1.747490114058713E2  -2.552548498987117E1   3.434730409717557E1  
                        
 1.717471471471471E10   -2.891685325111037E1  -1.392039902289977E1  -3.313472510627549E1  -6.404044064561313E1  -1.927501473346416E1  -6.536048823757167E1  -1.229919876877001E1   5.425907649075668E1  
                        -3.322574342778692E1  -5.396028959678964E1  -3.062350487365647E1  -1.765510241566482E2  -1.208031824642095E1   3.943890450104304E1  -3.327033970690592E1  -2.754641862693658E1  
                        -1.936637759956657E1  -6.722090296689738E1  -1.217136614514029E1   2.764786928955751E1  -2.416252272432211E1   1.250857585700919E2  -3.287702673019425E1  -4.693342644461254E1  
                        -1.230471298432993E1   6.464621485744843E1  -3.329845097576591E1  -2.619052233218355E1  -3.288367793548414E1  -3.393580224462614E1  -3.065378448601786E1   4.170821184271311E1  
                        
 1.724477477477477E10   -3.404765319830688E1  -7.121842367017489E1  -3.266320358197424E1   8.351553482873966E1  -1.931179625250941E1  -1.109713378650761E2  -1.231850749058812E1  -1.538725184779850E2  
                        -3.265707611268755E1   9.312698284860768E1  -3.023284364808504E1   1.796610851526435E2  -1.219612094957826E1  -1.690068429508807E2  -3.318131522314970E1  -3.945203673345258E1  
                        -1.934214098675903E1  -1.132656684971132E2  -1.216313143529365E1   1.794345688148377E2  -2.566593007218771E1   1.051950642627520E2  -3.259269347555911E1   1.046623653876991E2  
                        -1.236108632389973E1  -1.436746851344616E2  -3.321666982319890E1  -3.789824154376687E1  -3.272014515371426E1   1.167311933088536E2  -2.996175139653897E1  -5.892577497145554  
                        
 1.731483483483484E10   -2.897818777692163E1   1.284465842640111E2  -3.272574323810468E1  -1.264888602595400E2  -1.948922886350111E1  -1.553431408524097E2  -1.232911392603743E1  -1.978841247940715  
                        -3.271259808277704E1  -1.170386559833339E2  -3.037655091603565E1   1.651799055321016E2  -1.221377682321564E1  -1.718290662017881E1  -3.299252721491259E1  -5.167795694933510E1  
                        -1.950181283558589E1  -1.578261702784465E2  -1.224785613616684E1  -2.884621968873040E1  -2.136961694753353E1   8.522003415135578E1  -3.259874439812903E1  -1.014298619502666E2  
                        -1.238639256377738E1   8.016239648551991  -3.305106222205079E1  -5.043122951892760E1  -3.264065470580947E1  -8.978240749167479E1  -2.755220293761122E1   2.090308215167191E1  
                        
 1.738489489489489E10   -2.544099889043110E1   8.400443162835029E1  -3.240327386109446E1   2.472700747585177E1  -1.932325166733018E1   1.607376634295138E2  -1.238392897515449E1   1.496955840807605E2  
                        -3.233716593100396E1   3.452614643074105E1  -3.013691066805955E1   1.585712435139092E2  -1.219155030207791E1   1.343464801813588E2  -3.291007890544073E1  -6.432965789034016E1  
                        -1.932979804636936E1   1.582821507728389E2  -1.224507685596945E1   1.226558667117308E2  -2.269077088171558E1   7.571563505753684E1  -3.199696969344876E1   4.925300755537751E1  
                        -1.236059590929415E1   1.595070236015939E2  -3.295258306876100E1  -6.394322697192086E1  -3.194167357427486E1   6.026248738600237E1  -2.982873026611121E1   2.504284017063703E1  
                        
 1.745495495495495E10   -2.230930426376091E1   7.058518197814831E1  -3.204390057413894E1   1.712808319106249E2  -1.924374473463797E1   1.132540732067643E2  -1.242948318084832E1  -5.857746559731049E1  
                        -3.204451107822430E1  -1.782489586237926E2  -2.765176215969703E1  -1.739697237612804E2  -1.235244068909683E1  -7.309295300400522E1  -3.297511109627776E1  -7.619462124234661E1  
                        -1.932027554859715E1   1.113484620699737E2  -1.233788483362422E1  -8.550048173740184E1  -2.253463724824892E1   6.410211122276073E1  -3.175991064941534E1  -1.657670559799528E2  
                        -1.246430672801915E1  -4.845548239879042E1  -3.305510780982786E1  -7.692005684496709E1  -3.168928720424711E1  -1.546728393999145E2  -3.210962088423801E1   8.056604753946104  
                        
 1.752501501501502E10   -1.948600075995282E1   3.810156488909479E1  -3.247012006419647E1  -4.088548229306107E1  -1.959157897665378E1   6.904549121760837E1  -1.248128317575574E1   9.312812105770682E1  
                        -3.244513173443306E1  -2.995000386950415E1  -3.479644601078702E1   1.676921046845612E2  -1.228132747243267E1   7.896453271899959E1  -3.313077917299837E1  -8.834206832143455E1  
                        -1.964340421937786E1   6.792185926317256E1  -1.230260279858533E1   6.653174111863550E1  -2.066537240194137E1   1.538022508423215E1  -3.248943375513742E1  -1.430268986989329E1  
                        -1.252305774858782E1   1.037411744499518E2  -3.313886049406241E1  -8.933693253560378E1  -3.255073017117937E1  -2.506904561782006  -2.839650346788086E1   2.364173306081400E1  
                        
 1.759507507507507E10   -2.092311915551826E1  -3.822035583749739  -3.297579360075911E1   1.132818197704409E2  -1.932357704526825E1   2.549966426133996E1  -1.246286967509708E1  -1.154436938529003E2  
                        -3.293575542344365E1   1.249556013913243E2  -2.540927683064089E1   1.427554144785945E2  -1.236585195083067E1  -1.301729988933177E2  -3.324455166505463E1  -1.008638516712801E2  
                        -1.932160057080648E1   2.486183619131779E1  -1.237035779181779E1  -1.424991358574199E2  -2.711381555437805E1   2.593382401773340  -3.154433709894196E1   1.392501758568816E2  
                        -1.254946337376362E1  -1.039250383172087E2  -3.321259979964170E1  -1.014950838769937E2  -3.157418871250381E1   1.516022928600973E2  -2.814716463584089E1   3.972781670150925E1  
                        
 1.766513513513513E10   -2.263777427563528E1  -3.168597718726337E1  -3.240459242848959E1  -9.401615077741393E1  -1.921581857491765E1  -2.166554477618419E1  -1.248888553316823E1   3.550613086628487E1  
                        -3.234832673066784E1  -8.188621476977146E1  -2.772800239678415E1   1.549218357994033E2  -1.240162505443844E1   2.206896437968778E1  -3.329676685390911E1  -1.134995035565791E2  
                        -1.930152763235624E1  -2.223159677799669E1  -1.241486412829740E1   9.532107783736658  -2.402644948287501E1  -4.484233014011299E1  -3.159761601954665E1  -7.638445507708734E1  
                        -1.253767687868382E1   4.807260102502131E1  -3.327570170316014E1  -1.126494890676498E2  -3.149336216220016E1  -6.283265777932027E1  -3.095815662556611E1   2.489654485380189E1  
                        
 1.773519519519519E10   -2.239966833165349E1  -8.231618696563696E1  -3.219634009161379E1   5.544214011752265E1  -1.947149961572470E1  -6.677778725763902E1  -1.258510235360448E1  -1.727341106965603E2  
                        -3.204312037648717E1   6.664081559785521E1  -3.373033917444280E1   1.577788425281481E2  -1.235480532518037E1   1.731483570005453E2  -3.327106242277117E1  -1.244083060547451E2  
                        -1.951643707374626E1  -6.707696006029889E1  -1.241343276331608E1   1.615805055662119E2  -2.169925536368783E1  -1.234189460909118E2  -3.264738897392790E1   7.576192226026879E1  
                        -1.257244446115159E1  -1.599557453982910E2  -3.324027074705112E1  -1.235919143842495E2  -3.248448366652003E1   8.873105294584600E1  -2.773510441647648E1   2.992164100093160E1  
                        
 1.780525525525525E10   -2.093161212278962E1  -1.510792771258430E2  -3.236668310688111E1  -1.528383643775224E2  -1.937245851026678E1  -1.104328261984255E2  -1.257984319939558E1  -2.070509828855484E1  
                        -3.229783984895528E1  -1.424929538478478E2  -2.852794013165985E1   1.200636650830834E2  -1.241623572008898E1  -3.527374368257387E1  -3.309057250827631E1  -1.367583743246250E2  
                        -1.944563854548512E1  -1.114817994679182E2  -1.246372857984144E1  -4.755135701017888E1  -2.329082241797688E1   1.787214390808958E2  -3.178378748289633E1  -1.273775978083685E2  
                        -1.256441579253565E1  -7.886974318003833  -3.310055594738613E1  -1.352850265420294E2  -3.170255264002738E1  -1.142039328055934E2  -2.827093954684526E1   3.336541396758226E1  
                        
 1.787531531531532E10   -2.091081011568052E1   1.644431678779191E2  -3.180971541112564E1  -9.492039340985661E-1  -1.924161674666470E1  -1.572486250195413E2  -1.258054024617121E1   1.307203517349136E2  
                        -3.163054700271288E1   8.946788193962775  -2.557784614467866E1   1.413739620374957E2  -1.240723094081815E1   1.158847549680841E2  -3.302231699861705E1  -1.499078504613250E2  
                        -1.936381865694952E1  -1.585345049569954E2  -1.261515215528209E1   1.037637480849948E2  -1.824454038922202E1   1.517423888376979E2  -3.126136890115024E1   1.828978320654801E1  
                        -1.259690796078843E1   1.432373363968827E2  -3.303562010967662E1  -1.483987721267866E2  -3.118346969682398E1   3.112362969452295E1  -3.115248383035500E1   4.672879888282218E1  
                        
 1.794537537537537E10   -1.983318904562916E1   1.247553574332797E2  -3.135880376804329E1   1.470845369705062E2  -1.965705709486278E1   1.577205074563306E2  -1.266888749994511E1  -7.799329387329082E1  
                        -3.133349644316173E1   1.566517469507251E2  -2.988417807418417E1   1.418745967805032E2  -1.262282718361354E1  -9.181685852856388E1  -3.294930861354378E1  -1.628438055964853E2  
                        -1.968185049087603E1   1.560786618468682E2  -1.266285009528388E1  -1.037953549512687E2  -1.566446349946305E1   1.099458809354258E2  -3.190957852983916E1   1.684549176601963E2  
                        -1.269431561727058E1  -6.567916040732405E1  -3.298766228925717E1  -1.610589895817797E2  -3.172008779639744E1  -1.789397188831674E2  -3.177082603434071E1   3.142456388567371E1  
                        
 1.801543543543543E10   -1.756355146249167E1   7.438481696670421E1  -3.158041211170518E1  -6.714191178170397E1  -1.976463906352700E1   1.134116771249292E2  -1.277925471659023E1   7.456551688070211E1  
                        -3.160079561536653E1  -5.706497342924612E1  -2.785641984271529E1   1.247766742429549E2  -1.264510673337347E1   6.002285858321874E1  -3.293443975977549E1  -1.756186701450972E2  
                        -1.976730909232460E1   1.115917487719604E2  -1.263006692215685E1   4.747255194370743E1  -1.580916547510070E1   6.929999262498600E1  -3.140170847620185E1  -3.886032975265777E1  
                        -1.281949537944553E1   8.665010700385949E1  -3.301883105046569E1  -1.746552063408898E2  -3.137180062438864E1  -2.557892148956336E1  -3.413531097353235E1   2.854487970752057E1  
                        
 1.808549549549550E10   -1.626848802152852E1   2.397387782675766E1  -3.201002842428884E1   8.476429754025517E1  -1.979186875282825E1   6.966240924874388E1  -1.280725466913254E1  -1.332061888027928E2  
                        -3.214230251904534E1   9.536578234749493E1  -2.521274512236910E1   1.234549729243054E2  -1.282912568729353E1  -1.481734768158592E2  -3.311825182487048E1   1.716973719458873E2  
                        -1.979755142025551E1   6.707689793602148E1  -1.277171504007122E1  -1.612664124284448E2  -1.385354112455002E1   4.024267046508787E1  -3.109753193300065E1   1.078645620811312E2  
                        -1.281354099209077E1  -1.215500180647589E2  -3.317089577379954E1   1.722657867222162E2  -3.103686607559773E1   1.218405892718212E2  -2.906773210501138E1   4.953453348058134E1  
                        
 1.815555555555555E10   -1.532290058704045E1  -4.901304467040665  -3.173842501072776E1  -1.234664615204128E2  -1.977908927520681E1   2.412628368744423E1  -1.284613433146284E1   1.760062919545853E1  
                        -3.188868772779668E1  -1.117289823762825E2  -2.578657294419331E1   1.223959387053648E2  -1.288768262486537E1   4.662823285308702  -3.341093842005505E1   1.595205322918162E2  
                        -1.981773972283965E1   2.312651266010007E1  -1.280014877504474E1  -8.694038844577271  -1.423921537938415E1   5.453178127990075  -3.145252786232503E1  -1.028996050107771E2  
                        -1.290395728140910E1   2.975354472430426E1  -3.335267968665658E1   1.589876134185228E2  -3.156250782195582E1  -8.992653590135872E1  -2.621633791692120E1   8.887858669285822E1  
                        
 1.822561561561562E10   -1.384974713582656E1  -3.574156097973665E1  -3.192406071739722E1   2.274280248273625E1  -1.994541243298230E1  -2.061787823482466E1  -1.300604553519154E1   1.698017204647345E2  
                        -3.207057976812459E1   3.572890361841954E1  -2.589000369608514E1   1.121714485288984E2  -1.288418653923694E1   1.571691680701701E2  -3.363297943136332E1   1.476647452365332E2  
                        -1.994017920626260E1  -2.186319076415760E1  -1.280979368225762E1   1.431164906947874E2  -1.413389777298525E1  -3.878349294915418E1  -3.155002633041669E1   4.814577708418788E1  
                        -1.301184008158717E1  -1.770767888823381E2  -3.362146187537214E1   1.474716054154879E2  -3.186092059070623E1   6.191510959576964E1  -3.120878023829436E1   1.084631322993575E2  
                        
 1.829567567567567E10   -1.478178077173587E1  -7.648624750338304E1  -3.252447819979460E1   1.743879152335809E2  -1.986838733175764E1  -6.490176158559660E1  -1.292025648514859E1  -3.846472852116663E1  
                        -3.249967534604305E1  -1.709362088352859E2  -2.621314424939583E1   1.153681071927430E2  -1.277801228335973E1  -5.214477669191400E1  -3.365845571413805E1   1.359499560083794E2  
                        -1.997998633749192E1  -6.459500881036334E1  -1.278397648931889E1  -6.506741963537449E1  -1.465600277221957E1  -7.545542801209621E1  -3.192348887263626E1  -1.594102768467579E2  
                        -1.290221790273932E1  -2.419648718327365E1  -3.363269890792900E1   1.363411082023151E2  -3.187833485302359E1  -1.458075461037884E2  -2.875674448285671E1   7.176377709401807E1  
                        
 1.836573573573573E10   -1.678919181369369E1  -1.178558992893993E2  -3.229677096270271E1  -3.041773917668805E1  -1.970019562875046E1  -1.105397489097815E2  -1.294064656000559E1   1.129364479870988E2  
                        -3.227983974709061E1  -1.640331209375950E1  -2.518299386752961E1   9.207674156595728E1  -1.276693847278137E1   9.921707268477293E1  -3.365301262362272E1   1.236892579081778E2  
                        -1.977545155293394E1  -1.099268274022919E2  -1.287979309908270E1   8.615439310499806E1  -1.580662340828109E1  -1.244986114502251E2  -3.161384207694320E1  -8.888752788336056  
                        -1.287550178462627E1   1.272135361295769E2  -3.359812133256929E1   1.247603561441488E2  -3.159961958047452E1   5.209825637175314  -2.327346366063953E1   8.227532285309869E1  
                        
 1.843579579579580E10   -1.659035534487584E1  -1.648802825785238E2  -3.181933337475265E1   1.180317413625900E2  -1.980900250332061E1  -1.574748929102266E2  -1.297550759609342E1  -9.585750431388998E1  
                        -3.173552969571735E1   1.324062206345513E2  -2.443246635126036E1   9.730402608014705E1  -1.283020207751983E1  -1.092155625991783E2  -3.374743535873917E1   1.110763266405070E2  
                        -1.994590730328934E1  -1.570014058548826E2  -1.295491139649170E1  -1.220650843129674E2  -1.329192945790144E1  -1.761350029731347E2  -3.197787492164089E1   1.379325998041463E2  
                        -1.296703406991485E1  -8.126765470189066E1  -3.372454119546507E1   1.126910683428937E2  -3.170743261495154E1   1.520582031492389E2  -2.204105594804288E1   9.858021050716835E1  
                        
 1.850585585585585E10   -1.533576130603306E1   1.369837370442040E2  -3.185886023982201E1  -9.377747986437046E1  -2.016156511665845E1   1.585519122325028E2  -1.308385435598798E1   5.618680103799497E1  
                        -3.181018932171493E1  -8.069370322367608E1  -2.757412153878408E1   1.242933722335708E2  -1.283656910303236E1   4.236174325996399E1  -3.359018260359477E1   9.919754155326295E1  
                        -2.022823914176170E1   1.588844828805921E2  -1.295409594069775E1   2.980139524365512E1  -1.384068408477388E1   1.336468590722576E2  -3.228801422170084E1  -6.733956528321288E1  
                        -1.308345500431351E1   7.048763557686682E1  -3.359976445166480E1   1.006549229369184E2  -3.222635109022993E1  -5.312370587167353E1  -2.440336245629505E1   7.909719931843583E1  
                        
 1.857591591591591E10   -1.436601403192868E1   8.808971639109213E1  -3.214287208099511E1   5.811224955897060E1  -2.021803188338188E1   1.148371388643517E2  -1.309098355599963E1  -1.512450342692081E2  
                        -3.216141306241843E1   7.147282970596676E1  -2.840282680639608E1   7.384409408106092E1  -1.305399576656265E1  -1.670298055636720E2  -3.368522337538614E1   8.534563422993394E1  
                        -2.020353012049715E1   1.142865225817346E2  -1.309188278756435E1  -1.793691276039841E2  -1.240405421656382E1   9.399252009433185E1  -3.152547832893421E1   8.313554451913524E1  
                        -1.305047827033091E1  -1.375952883099423E2  -3.364136476225340E1   8.676045167762291E1  -3.145398485161721E1   9.769959242556980E1  -2.264792816208098E1   6.072891543742637E1  
                        
 1.864597597597598E10   -1.336375469826253E1   5.745564919573231E1  -3.199576401757763E1  -1.521125944086001E2  -2.050216274692181E1   6.901314187376039E1  -1.323246796841895E1   1.204849270751290E-1  
                        -3.196610757407257E1  -1.387630742815810E2  -2.358995458022588E1   8.154665167974368E1  -1.344951621634941E1  -1.299771046851037E1  -3.416054731029413E1   7.364668144990323E1  
                        -2.047822796213086E1   6.814243803377121E1  -1.341829827870266E1  -2.673673793736709E1  -1.072101995262015E1   5.768678549455053E1  -3.197352790846329E1  -1.337910920511588E2  
                        -1.318759254034556E1   1.357918784916899E1  -3.416537606223025E1   7.445272874741846E1  -3.199581955169101E1  -1.186204704397207E2  -2.098457855257300E1   6.805187742773396E1  
                        
 1.871603603603603E10   -1.237427160913749E1   2.215673179739158E1  -3.197344154208934E1  -5.264825376939844  -2.073012031040487E1   2.733824813753443E1  -1.333763155883671E1   1.526077963492101E2  
                        -3.197627290581457E1   8.886429549893794  -2.741458297016150E1   9.389380812187886E1  -1.334062973320464E1   1.403172136462338E2  -3.433816841602900E1   6.291074361218693E1  
                        -2.067232280249153E1   2.589352410462615E1  -1.319203631386193E1   1.256482626482137E2  -1.140698499426371E1   1.473075568888778E1  -3.306582569504452E1   2.116538394439021E1  
                        -1.336396963718358E1   1.658947336209595E2  -3.428204007861059E1   6.310878718748592E1  -3.305193891404987E1   3.664996842950736E1  -2.053807714146737E1   6.817021620754176E1  
                        
 1.878609609609610E10   -1.355961107178645E1  -2.144748294928510E1  -3.300730596188202E1   1.426793838197554E2  -2.067176007560280E1  -1.608731943509357E1  -1.324893940298497E1  -5.418285425731739E1  
                        -3.298547493987520E1   1.581281952591264E2  -3.025207924257503E1   4.408516446690111E1  -1.333237984569786E1  -6.752016354844496E1  -3.447973372754939E1   5.162350465806881E1  
                        -2.057543827004148E1  -1.789434284995716E1  -1.326714972861127E1  -8.349254754175345E1  -1.093629005178828E1  -1.461116776907005E1  -3.233779405321855E1   1.750472987652270E2  
                        -1.328604561747319E1  -4.058445415881803E1  -3.446510105472601E1   5.104208463321917E1  -3.234619715418278E1  -1.694277810236413E2  -2.213401777133657E1   6.329527260833175E1  
                        
 1.885615615615616E10   -1.450471613237695E1  -6.526415487367400E1  -3.324015376745907E1  -6.118478849277561E1  -2.061289007651614E1  -6.022175972943887E1  -1.318784714352086E1   9.677852064866470E1  
                        -3.318043752449025E1  -4.539448894643082E1  -2.585756665694486E1   4.721247348106469E1  -1.346545054944654E1   8.642910950149512E1  -3.469384439694683E1   4.158059572131883E1  
                        -2.056274005225204E1  -6.211908410170896E1  -1.340689514491222E1   6.952084618969705E1  -1.111647419655341E1  -5.415303078196692E1  -3.254606198721645E1  -3.889041358626759E1  
                        -1.318968244539453E1   1.109261938642478E2  -3.462953699681693E1   4.078410265037274E1  -3.257331280566250E1  -2.313365570458171E1  -2.121001853380265E1   4.874535505643420E1  
                        
 1.892621621621621E10   -1.330536537941860E1  -1.077387961283841E2  -3.272638305489615E1   8.872254984777766E1  -2.048754128737805E1  -1.047450882960191E2  -1.339131121815497E1  -1.121563221413532E2  
                        -3.253152678372548E1   1.051736646142837E2  -2.851630507511227E1   7.002743217679786E1  -1.313922179366113E1  -1.211958469498354E2  -3.464612866093670E1   2.987706478041590E1  
                        -2.048119115746867E1  -1.064789782188590E2  -1.317415616127705E1  -1.384463700568041E2  -1.230058710303276E1  -1.031592637725796E2  -3.345189247737743E1   1.149934207074454E2  
                        -1.329044889048579E1  -9.680450677774958E1  -3.455317028851327E1   2.959238830707584E1  -3.324313526333175E1   1.316721999326504E2  -1.939021255372028E1   4.461770376986635E1  
                        
 1.899627627627628E10   -1.269372335756106E1  -1.599265804497209E2  -3.354472837817148E1  -1.230397259183879E2  -2.052724911947925E1  -1.500269913662026E2  -1.336767288129095E1   4.014811249931100E1  
                        -3.332429184380537E1  -1.084890152955290E2  -3.265033558732157E1   2.748234483418696E1  -1.305557089717301E1   2.841045905609437E1  -3.454050116692337E1   1.811936646774881E1  
                        -2.060466768488572E1  -1.510545627763157E2  -1.318205985672744E1   1.256203516908077E1  -1.229841565520913E1  -1.445704013286272E2  -3.289417719021046E1  -9.082324748356656E1  
                        -1.322507649167751E1   5.577159431250227E1  -3.450126426938469E1   1.842116456214403E1  -3.266254556085594E1  -7.513584587927224E1  -2.022694696658267E1   5.617088038859573E1  
                        
 1.906633633633633E10   -1.345809750297303E1   1.609978284549596E2  -3.371666394889534E1   3.475726861900828E1  -2.053890517582398E1   1.651810302512467E2  -1.326725473463908E1  -1.681097300073353E2  
                        -3.360328202830668E1   4.862460408877028E1  -3.231956956863615E1   3.195041008893728E1  -1.313433854966610E1   1.798258873884899E2  -3.445877682028391E1   5.795297945233043  
                        -2.055598078923624E1   1.648449313075198E2  -1.325664691237521E1   1.649132859617112E2  -1.255765199440753E1   1.652260484035085E2  -3.281353330568555E1   5.652254153481838E1  
                        -1.314961902881456E1  -1.528603871755363E2  -3.449297693075806E1   6.711521978639463  -3.273977093812023E1   7.199103860314038E1  -2.178452859154541E1   4.509391723202160E1  
                        
 1.913639639639640E10   -1.346797902822467E1   1.219840916145030E2  -3.286081397471626E1  -1.754286013218610E2  -2.063499576454947E1   1.195771869322305E2  -1.343918120534022E1  -1.646336682129166E1  
                        -3.269557931337076E1  -1.624979708148137E2  -3.124032178402167E1   5.609801730686829E1  -1.323927384259073E1  -2.940845791700981E1  -3.469545094067740E1  -6.947349152987546  
                        -2.067118752628859E1   1.192478992441261E2  -1.331866060588639E1  -4.311719945662093E1  -1.182574208361551E1   1.129950489599464E2  -3.323612270080781E1  -1.535862421715192E2  
                        -1.332256082462348E1  -1.757921708327056  -3.466769500366171E1  -5.783076889923789  -3.323712451884711E1  -1.383065443275272E2  -1.913792731744921E1   2.562947245453813E1  
                        
 1.920645645645646E10   -1.285459565626599E1   7.317050644277460E1  -3.306029318394226E1  -3.010709063971266E1  -2.095050174021130E1   7.562490272981732E1  -1.367822118022392E1   1.366853212027793E2  
                        -3.303419949038167E1  -1.825636703692361E1  -3.300165527151064E1   1.756767985673730E1  -1.337657027004140E1   1.219617091462637E2  -3.496881302491467E1  -1.774312179432109E1  
                        -2.096278592859491E1   7.463607334468078E1  -1.340328366429772E1   1.091444521013564E2  -1.128720675841712E1   7.536578306115261E1  -3.354176544460820E1  -1.620649696851191  
                        -1.350913437313878E1   1.503818063765426E2  -3.495875717670933E1  -1.682324683711348E1  -3.359009122566096E1   1.268313058996158E1  -1.796170540461626E1   2.768917395728516E1  
                        
 1.927651651651651E10   -1.358656516883220E1   2.695436726080560E1  -3.386191789870009E1   1.210040501363772E2  -2.111759941870978E1   3.290097699659652E1  -1.349351317537646E1  -7.053861620147490E1  
                        -3.387526335690374E1   1.328533435025385E2  -3.733080954592283E1   7.396278645335182  -1.350656906878656E1  -8.523814387713809E1  -3.501919892982963E1  -2.910093681616051E1  
                        -2.105809059728209E1   3.207416608148013E1  -1.344359637166329E1  -9.883046301121863E1  -1.118572945345726E1   3.237528802584415E1  -3.376958938535914E1   1.497943580051125E2  
                        -1.346050109806538E1  -5.671060242151689E1  -3.493455342765142E1  -2.759104064278569E1  -3.380861458036212E1   1.647023523147320E2  -1.843943146418405E1   2.697534910534730E1  
                        
 1.934657657657658E10   -1.357895027550955E1  -1.269888953000089E1  -3.397412092088248E1  -8.595805255883033E1  -2.101317572437258E1  -1.024175640423031E1  -1.347018248136624E1   8.064548513752833E1  
                        -3.407259931017693E1  -7.430462159417998E1  -3.936697980519330E1  -7.199576125302976E1  -1.362745828137413E1   6.739886438021614E1  -3.514026546875028E1  -4.150358017636046E1  
                        -2.087967153971329E1  -1.184731612032000E1  -1.352503529690736E1   5.329477662241540E1  -1.030221098844348E1  -1.166361438300671  -3.371964309220957E1  -5.980295353809245E1  
                        -1.337575745497105E1   9.466746554748326E1  -3.509944753758801E1  -4.009705474565169E1  -3.381235103108691E1  -4.381862880734154E1  -2.031181073507654E1   9.294490985273610  
                        
 1.941663663663664E10   -1.260172748670875E1  -5.307242890216867E1  -3.404942891086866E1   6.202400284905774E1  -2.116351475027176E1  -5.415010181406738E1  -1.353051879972803E1  -1.268126052517527E2  
                        -3.413928435765241E1   7.491167284141278E1  -4.298746498321851E1   1.099740219905796E1  -1.358362134299847E1  -1.382705688752560E2  -3.541394824690589E1  -5.045718955550289E1  
                        -2.105762817925702E1  -5.598658237247214E1  -1.348880453953938E1  -1.536809976674979E2  -1.115774507808972E1  -3.943212426760565E1  -3.450877954998154E1   8.968840015750992E1  
                        -1.354903690661545E1  -1.132466017019932E2  -3.533866796327677E1  -4.955743771296181E1  -3.461151366993933E1   1.060318111475342E2  -1.915209099015935E1   4.079164620029367  
                        
 1.948669669669669E10   -1.306966721435605E1  -1.004957176633862E2  -3.512539334258234E1  -1.496400617687215E2  -2.091068080340880E1  -9.558367647377690E1  -1.350161524974656E1   2.570102239649518E1  
                        -3.517725740198787E1  -1.361743820784869E2  -4.070547597015818E1   1.313205125796021E2  -1.330400693152009E1   1.451151410506241E1  -3.512400050500621E1  -6.066851987313741E1  
                        -2.083394422321912E1  -9.779382667697047E1  -1.325752696133635E1  -2.417606227496829  -1.216368013844987E1  -8.156320540573522E1  -3.494483412222270E1  -1.124197968176391E2  
                        -1.345554287440761E1   4.035684971966854E1  -3.507503357243128E1  -5.982124280699348E1  -3.502018308091076E1  -9.307480353702525E1  -1.885943759304836E1   6.028093430499890  
                        
 1.955675675675676E10   -1.446512111676583E1  -1.409908403962991E2  -3.599394552726643E1   8.105655390691831  -2.062011068259224E1  -1.415342072229049E2  -1.336923981930023E1   1.761448125305456E2  
                        -3.598958264872258E1   2.217986971064396E1  -3.006528408184781E1  -1.701197674255946E2  -1.332168509284694E1   1.656110609758521E2  -3.512156523361887E1  -7.298757612039574E1  
                        -2.057253566450747E1  -1.435961624920408E2  -1.332964839215690E1   1.479860960694789E2  -1.202594176822675E1  -1.150697770443350E2  -3.387183080658578E1   3.852836531212903E1  
                        -1.330097244281618E1  -1.682661684824700E2  -3.503416801640495E1  -7.251887403593855E1  -3.380993170273726E1   5.563822233423546E1  -2.027500214726877E1   6.656544987321158  
                        
 1.962681681681681E10   -1.408718795364805E1   1.760651257350304E2  -3.510542386057130E1   1.616754704179980E2  -2.076842774000215E1   1.737336101399353E2  -1.350038134602991E1  -3.296299977627012E1  
                        -3.522592777963842E1   1.773540676172052E2  -4.201504943187224E1  -1.049185173165673E2  -1.327838950163186E1  -4.101610840221367E1  -3.509133341724502E1  -8.418818539534449E1  
                        -2.073007645071373E1   1.716789135736188E2  -1.333273041663848E1  -5.944525482650022E1  -1.371824983723168E1  -1.741124138925978E2  -3.471803748382994E1  -1.777614428968292E2  
                        -1.340942613401630E1  -1.682170603487610E1  -3.514014277339652E1  -8.388071051798298E1  -3.457907539919936E1  -1.587755499652762E2  -2.119561112882706E1  -1.421239787997660E1  
                        
 1.969687687687688E10   -1.343298807282829E1   1.241398166220335E2  -3.532476756319963E1  -5.217621233747827E1  -2.060776427231060E1   1.291004819330855E2  -1.365200476628979E1   1.197616478789063E2  
                        -3.533802052582848E1  -3.640477783384418E1  -3.193975159568045E1   1.107445825769237E2  -1.300966339873898E1   1.096983654784779E2  -3.503898814176289E1  -9.475761771714508E1  
                        -2.061648325232185E1   1.278413343286316E2  -1.312582433896574E1   9.108852487898676E1  -1.455870430067806E1   1.425467898801311E2  -3.539581699194461E1  -1.668527495874805E1  
                        -1.348015520179760E1   1.361812150860661E2  -3.507521852653323E1  -9.493839098656520E1  -3.523977754279242E1  -2.447261595957277E-1  -2.028551094371550E1  -2.054321236821527E1  
                        
 1.976693693693694E10   -1.400093180658224E1   8.336993359927719E1  -3.646623960011313E1   1.015301643406697E2  -2.073995412962430E1   8.410552044739008E1  -1.345672577826042E1  -8.721625392915459E1  
                        -3.661556461124771E1   1.195271391389120E2  -2.706436541151142E1   1.707445895565466E2  -1.331803616681051E1  -9.981546656370041E1  -3.501533222320722E1  -1.062572477635249E2  
                        -2.066607580790662E1   8.277703040434389E1  -1.332409047282015E1  -1.182867685417377E2  -1.391256187013490E1   9.953816040740718E1  -3.419353326449337E1   1.304922356695852E2  
                        -1.338403866864402E1  -7.149108218409046E1  -3.508571476579061E1  -1.072771933206615E2  -3.419905854322585E1   1.480824293039474E2  -2.059569800908282E1  -7.979368970068676  
                        
 1.983699699699699E10   -1.460253337519106E1   5.545291852067256E1  -3.557518708861974E1  -1.023672164502921E2  -2.083357796800503E1   4.084522976955422E1  -1.341004365704566E1   6.299159966550701E1  
                        -3.563198052199955E1  -8.416966662466058E1  -3.488284051167808E1   1.698992079691518E2  -1.341855633112572E1   5.428964514175986E1  -3.517852887838791E1  -1.178442316720160E2  
                        -2.069024454508330E1   3.891436819682228E1  -1.339997007305217E1   3.457860191218204E1  -1.351793477572372E1   4.441927701271979E1  -3.541005821854895E1  -8.465618079955597E1  
                        -1.337046785791127E1   7.969897582815163E1  -3.517479162076076E1  -1.185274922716870E2  -3.555713643009513E1  -6.664070847842383E1  -2.350474396408447E1  -3.230417189741329  
                        
 1.990705705705706E10   -1.521905589077537E1   3.361506924387272  -3.553854303262096E1   4.005667622524838E1  -2.078414198892801E1  -3.508690492166342  -1.363769952220382E1  -1.445561905335907E2  
                        -3.570679035827628E1   5.823963715547153E1  -3.161886506244104E1   1.123130704339432E2  -1.326748450507649E1  -1.543905393215863E2  -3.525671836046271E1  -1.288325819581462E2  
                        -2.066806402769181E1  -5.088751021729108  -1.323613769362490E1  -1.735374659331190E2  -1.412523817877595E1   1.116559372618377E1  -3.641925423026354E1   7.409481756799617E1  
                        -1.354583974492130E1  -1.277983312729760E2  -3.516183834954969E1  -1.295369750956529E2  -3.647513801999721E1   9.389655278091554E1  -2.314898157085263E1  -2.883520520606446E1  
                        
 1.997711711711712E10   -1.688721673293983E1  -4.931810771919700E1  -3.733718075423470E1  -1.680813545105271E2  -2.084170675229007E1  -4.729963064166434E1  -1.343120116323533E1   8.184343405901387  
                        -3.743986501410244E1  -1.484170519511011E2  -2.802225924485941E1   1.324388224338368E2  -1.351451828225563E1  -2.542636644113029  -3.520025941816260E1  -1.401322268385827E2  
                        -2.063935844895902E1  -4.904782635359506E1  -1.331142558747312E1  -2.210824919738246E1  -1.405034873162377E1  -2.743552953568415E1  -3.580853340524355E1  -1.341556586404213E2  
                        -1.340879146093885E1   2.475943593120265E1  -3.514775553615050E1  -1.404958145293823E2  -3.583826827439537E1  -1.150125758310786E2  -2.247326358625477E1  -2.393068452714853E1  
                        
 2.004717717717717E10   -1.717987271070079E1  -9.332206039269128E1  -3.738094799399756E1  -9.304721225792163  -2.069237147890287E1  -9.070456598095956E1  -1.337644916499024E1   1.589448892239538E2  
                        -3.735702272616842E1   1.003453981727555E1  -3.028917634818833E1   1.382458014421252E2  -1.335266404301481E1   1.506091326937069E2  -3.507033444784746E1  -1.517838380073800E2  
                        -2.050953703551281E1  -9.243383572948039E1  -1.332065763073365E1   1.307803285038977E2  -1.399196544709788E1  -7.176627350114437E1  -3.629560565216018E1   1.464721871178354E1  
                        -1.332541849158637E1   1.761279498400487E2  -3.501864234584978E1  -1.522156753484372E2  -3.653059460534115E1   3.481626568631289E1  -2.553868938499489E1  -1.261408484476227E1  
                        
 2.011723723723724E10   -1.462130870224661E1  -1.350903910816404E2  -3.722545887434228E1   1.410361590745368E2  -2.047449485105410E1  -1.357020888778491E2  -1.353123559635673E1  -4.927574893736925E1  
                        -3.696138054550504E1   1.601084602052140E2  -2.869565959987762E1   1.042160540187078E2  -1.321158466616653E1  -5.843201377362674E1  -3.511704472667999E1  -1.630362210825975E2  
                        -2.037667986276303E1  -1.375470360582743E2  -1.318857993074006E1  -7.744657423063754E1  -1.556749809379805E1  -1.028436844043122E2  -3.686725106294387E1   1.702128266916158E2  
                        -1.339925143354041E1  -3.238780544458428E1  -3.502256100984616E1  -1.637827810633016E2  -3.679386286711417E1  -1.714378100295535E2  -2.657148061805289E1  -1.538716551468842E1  
                        
 2.018729729729730E10   -1.539889212504590E1  -1.761216428275928E2  -3.825288301068405E1  -6.888875534584817E1  -2.046689970275560E1   1.796114918067176E2  -1.352033297307174E1   1.035204652047230E2  
                        -3.799150875015104E1  -5.099807724769051E1  -2.654444187293856E1   8.911521325743172E1  -1.318598297265790E1   9.321028166264631E1  -3.499565567053131E1  -1.741774003995946E2  
                        -2.041975898613895E1   1.785688126273603E2  -1.314115630288403E1   7.426916302883205E1  -1.746358315505892E1  -1.486013519169580E2  -3.684158287576865E1  -3.323596355602133E1  
                        -1.343537621303443E1   1.198550870642797E2  -3.501992024380081E1  -1.746539236105836E2  -3.708761231111170E1  -1.627128273442620E1  -2.579006889897002E1  -3.406169935819634E1  
                        
 2.025735735735736E10   -1.736788163331591E1   1.457113139742535E2  -3.909922820413090E1   9.328509241080079E1  -2.030597150458570E1   1.357700879203909E2  -1.340396856035231E1  -1.040897362505350E2  
                        -3.874108727835476E1   1.097625812922106E2  -2.674243717950816E1   8.878672685794905E1  -1.306088813353632E1  -1.159637651061296E2  -3.486381594160323E1   1.739832119144384E2  
                        -2.022630510953367E1   1.337749334068365E2  -1.313250686608553E1  -1.338558043695656E2  -1.732460619736395E1   1.668988319650224E2  -3.694685231960001E1   1.188234088494659E2  
                        -1.328064927685692E1  -8.872567383213024E1  -3.490240982236044E1   1.734034023915641E2  -3.670590524555727E1   1.351812271677305E2  -2.624351160732171E1  -2.244322197895323E1  
                        
 2.032741741741742E10   -1.840898207527604E1   1.192153392277456E2  -3.791855052940113E1  -1.099293661790447E2  -2.024241994641730E1   8.982882451094048E1  -1.344108202762431E1   4.766589120138089E1  
                        -3.761708672723976E1  -9.470773236574479E1  -2.591687915456881E1   8.571733238600048E1  -1.313450901073633E1   3.501399855339372E1  -3.486776687595658E1   1.618631522813553E2  
                        -2.018299126423812E1   8.816581355092919E1  -1.318255117553951E1   1.758226897548936E1  -2.041673351945270E1   1.221478134398653E2  -3.724896295067642E1  -9.052424726484531E1  
                        -1.328356556719154E1   6.132635094341735E1  -3.484281984904237E1   1.605816578235514E2  -3.710747333665828E1  -7.487646494624289E1  -2.797860940139927E1  -8.488614805474532  
                        
 2.039747747747747E10   -2.089442103004334E1   4.490368023473801E1  -3.805133579443005E1   3.330673306762480E1  -2.040218816892468E1   4.572504734357939E1  -1.347595756567604E1  -1.597660136376867E2  
                        -3.780366990465933E1   4.801515426476009E1  -2.616659596185280E1   6.693683218725128E1  -1.321603652478105E1  -1.729554235636515E2  -3.486658800683387E1   1.513584574675253E2  
                        -2.031975176143924E1   4.341663005181178E1  -1.314122334863625E1   1.695583231272269E2  -2.103730558044876E1   5.658229127708477E1  -3.807837511768802E1   6.364287778232567E1  
                        -1.347406369908864E1  -1.469788721332204E2  -3.495311760736861E1   1.491306647378534E2  -3.794480996232821E1   7.902447884836244E1  -2.812693738834528E1  -1.365301404286763E1  
                        
 2.046753753753754E10   -2.112236518190921E1  -1.910326853743138E1  -3.975450779372221E1  -1.689193062157126E2  -2.023782733594483E1   1.808287728025340  -1.344270896587779E1  -7.580007719160166  
                        -3.959731613443433E1  -1.544813669264942E2  -2.362764537956571E1   4.971382296810575E1  -1.314049707161831E1  -2.195462615629238E1  -3.486698167376767E1   1.394966271792438E2  
                        -2.022352053555898E1  -4.926114305895640E-1  -1.312511107336937E1  -3.962432030653671E1  -2.150838790661298E1   3.553408545665867E1  -3.745434222634181E1  -1.380427499407531E2  
                        -1.344099975790874E1   5.396086407076009  -3.485235278842882E1   1.372839758573563E2  -3.765717819046677E1  -1.227599075109852E2  -2.552317024291332E1  -8.096767064190155  
                        
 2.053759759759760E10   -2.086991664721158E1  -4.719234254824534E1  -3.855840876037532E1  -9.089441238472887  -2.016650282246025E1  -4.370456944345629E1  -1.342421240599456E1   1.431436913831423E2  
                        -3.857881759007702E1   6.378026843296489  -2.411793656881828E1   6.240644003899867E1  -1.327730482731556E1   1.301359307205742E2  -3.484956101817473E1   1.270219998500533E2  
                        -2.011182911256078E1  -4.553230653278065E1  -1.326382881584942E1   1.119898467895137E2  -2.053096853195061E1  -3.630444618490159E1  -3.715181044100059E1   7.645433619046483  
                        -1.340380083492006E1   1.562987575228707E2  -3.487254319862516E1   1.241877350477103E2  -3.741651283628400E1   2.290778204637036E1  -2.661227351767616E1   9.308146187014142  
                        
 2.060765765765766E10   -1.782743108296273E1  -8.793574653069730E1  -3.852313978332537E1   1.342322768537290E2  -2.028629181213580E1  -8.779418542590101E1  -1.350514824102088E1  -6.547204656554476E1  
                        -3.839278173244897E1   1.504878193286412E2  -2.529222382109108E1   5.218907911975325E1  -1.323511406486077E1  -7.756830123724650E1  -3.493435268007814E1   1.158145334343072E2  
                        -2.024374153855181E1  -8.952607875498538E1  -1.322043350288126E1  -9.600960504782483E1  -2.061861012446494E1  -7.149882258852463E1  -3.879449077448319E1   1.636451896127589E2  
                        -1.348422171270485E1  -5.120113285297407E1  -3.489237089064869E1   1.131538393406180E2  -3.884574908677766E1   1.776701029613337E2  -2.952743916630269E1   1.754888795223387E1  
                        
 2.067771771771772E10   -2.032212854435436E1  -1.314420310418971E2  -3.998882484146444E1  -6.863898436622226E1  -2.014221054464561E1  -1.321019678966983E2  -1.344539327117696E1   8.629867780419987E1  
                        -3.998853112768989E1  -5.278544754219298E1  -2.376259530747268E1   2.469116619457482E1  -1.321167620914716E1   7.397675383743267E1  -3.482197283768182E1   1.044479701858611E2  
                        -2.007358299323347E1  -1.330919343609503E2  -1.316447724067640E1   5.539638848089295E1  -2.345597348504357E1  -7.916631012657361E1  -3.759481692946201E1  -3.406215147757138E1  
                        -1.344309509689710E1   1.016674067187527E2  -3.484598994214329E1   1.019759779424582E2  -3.783445091054571E1  -1.872561431977098E1  -2.702718977466968E1  -5.082877477941333  
                        
 2.074777777777778E10   -2.204408242111941E1  -1.684938217137283E2  -3.928386455315613E1   9.274253278292004E1  -2.004562782130273E1  -1.780536620969508E2  -1.344867681431694E1  -1.228290438841071E2  
                        -3.939403497161676E1   1.096639231445938E2  -2.194057814008584E1   4.536078716309704E1  -1.312118479483386E1  -1.341305853228735E2  -3.484075352357376E1   9.214738040724477E1  
                        -2.002267371953224E1  -1.785098647213367E2  -1.322743550919279E1  -1.534292710702830E2  -2.101508793031671E1  -1.531913050634122E2  -3.755181364012978E1   1.065940004954252E2  
                        -1.340935782556908E1  -1.065849853587164E2  -3.483228187508388E1   8.967252044428187E1  -3.742425117709543E1   1.228130123384418E2  -2.436135675661607E1   3.486660199457575  
                        
 2.081783783783784E10   -2.053147084523737E1   1.487360542557791E2  -3.856090393299348E1  -1.177466389249651E2  -2.008525753637196E1   1.375332510664261E2  -1.348497278889103E1   2.847256009849628E1  
                        -3.865232118166821E1  -1.011229766306913E2  -2.562816561054792E1   4.841173741867439E1  -1.323492856208387E1   1.751575907907237E1  -3.481381521240392E1   8.018161794011398E1  
                        -2.003944888593017E1   1.373974428429404E2  -1.319640318683016E1  -1.878409070573505  -2.758531455823328E1  -1.676801853169671E2  -3.910841231310106E1  -9.479472848944586E1  
                        -1.346040994289971E1   4.529343858196638E1  -3.481980806180506E1   7.836401197480660E1  -3.930779639848829E1  -7.783748957880094E1  -2.426132644969452E1   3.456949627618329  
                        
 2.088789789789790E10   -2.135961567014356E1   9.672095040140169E1  -3.925716363371713E1   3.500712056228586E1  -1.998127329328885E1   9.325630722495309E1  -1.350175734342385E1  -1.796945281113382E2  
                        -3.951168385373354E1   5.299001299078623E1  -2.397861921408727E1   1.749665718201109E1  -1.314302995018122E1   1.692789412787491E2  -3.475662569953366E1   6.824727657019504E1  
                        -1.998043203400600E1   9.285107924943544E1  -1.316229665293222E1   1.499279476718733E2  -3.173668607626309E1   1.717502820156039E2  -3.792789431495119E1   6.433141666486057E1  
                        -1.345416692819755E1  -1.622391735215733E2  -3.480122900772221E1   6.673967725854342E1  -3.798781621054675E1   8.285150630565306E1  -2.658185207470485E1  -9.659818241740284  
                        
 2.095795795795795E10   -2.501595382614649E1   6.864194031752524E1  -3.895079156557996E1  -1.666221699500408E2  -1.988155129877848E1   4.824124250338818E1  -1.348853072842019E1  -2.783316514842332E1  
                        -3.904910653835799E1  -1.477152320982857E2  -2.204265141352193E1   2.564108275138495E1  -1.319475025748926E1  -3.990631140048411E1  -3.476840484955294E1   5.660968626598125E1  
                        -1.989766851646860E1   4.741797411656778E1  -1.326665869728254E1  -5.900994849283935E1  -2.746926736109703E1   7.817356696085970E1  -3.779642108889573E1  -1.495522422248941E2  
                        -1.339891851497993E1  -1.100701276151590E1  -3.475737369548460E1   5.458181635414353E1  -3.784776509582094E1  -1.316928794256903E2  -2.358407165275808E1  -2.565427235686622E1  
                        
 2.102801801801802E10   -2.670464166635161E1   4.130576035485100E1  -3.800094868823187E1  -1.330752408562474E1  -1.996671020425820E1   3.953636169916911  -1.348451045264936E1   1.240076048650798E2  
                        -3.820070692516404E1   6.154379418814060  -2.299763333945895E1   2.464707308832384E1  -1.333153072903196E1   1.124112561716190E2  -3.478708800167060E1   4.491821975394533E1  
                        -1.996235241828560E1   2.874211174597813  -1.325574475798698E1   9.271540641224048E1  -4.128034465488526E1  -2.090922207699521E1  -3.872943728560851E1   7.214928936269113  
                        -1.349715121837369E1   1.402520038463333E2  -3.475958547426724E1   4.255212507314396E1  -3.863721231737662E1   2.515993870836520E1  -2.306259903303488E1  -1.979835718966297E1  
                        
 2.109807807807808E10   -3.050376753880172E1  -4.446337650982283E1  -3.801502358061541E1   1.332688943307490E2  -1.987945820051419E1  -3.999824526232752E1  -1.354564584075771E1  -8.412224210852430E1  
                        -3.811337940628219E1   1.535051380492730E2  -2.332760624728357E1   3.308573217163073  -1.324263637754094E1  -9.531326816189099E1  -3.475682430486858E1   3.332554491877001E1  
                        -1.984963807718404E1  -4.202276979881231E1  -1.324437260685339E1  -1.157068277453421E2  -3.250862656990203E1  -5.399467019773107E1  -3.763266686684731E1   1.642422857969397E2  
                        -1.355166991643484E1  -6.792821699877757E1  -3.476010080244020E1   3.065590334238444E1  -3.762437350473788E1  -1.788844791248837E2  -2.626672996885406E1  -1.257348932563109E1  
                        
 2.116813813813814E10   -2.454711602485794E1  -1.327693681056927E2  -3.907045819534120E1  -7.092414807912951E1  -1.984708076019601E1  -8.489277847511049E1  -1.356087130961763E1   6.846271389958939E1  
                        -3.891603114957559E1  -5.159497320664632E1  -2.326315505203550E1   4.517348030107996  -1.324539600729009E1   5.555855278185585E1  -3.473209869166001E1   2.122788730226552E1  
                        -1.991853513514354E1  -8.683062260716355E1  -1.329220441974431E1   3.568867086863256E1  -2.961955517843062E1  -6.692332112407107E1  -3.742607505231882E1  -4.488810785181296E1  
                        -1.350060919553165E1   8.299563440578467E1  -3.476082455746547E1   1.822615243006161E1  -3.731924005091206E1  -2.944313866250500E1  -2.865206340776316E1  -3.948019381972060E1  
                        
 2.123819819819820E10   -2.359747748209406E1  -1.478259071119801E2  -3.790131786062785E1   8.813212502978969E1  -1.985558116472269E1  -1.295175431174082E2  -1.350007079578727E1  -1.398660752408056E2  
                        -3.795916189135190E1   1.079653288260364E2  -2.361039578845990E1  -5.703201728778306  -1.335555849134805E1  -1.524942855399270E2  -3.468443726420126E1   9.771707999125836  
                        -1.982018518209753E1  -1.307979916802877E2  -1.328982962572779E1  -1.724485223622966E2  -3.549344908974778E1  -1.106013315037383E2  -3.728004323219503E1   1.071741239297065E2  
                        -1.358525716606326E1  -1.247484180401024E2  -3.476703890280756E1   6.485213113881000  -3.741395529351382E1   1.232137529600776E2  -2.363911410750458E1  -4.275022476420197E1  
                        
 2.130825825825826E10   -2.027873887997231E1  -1.735053713510243E2  -3.764962404447164E1  -1.235566219355999E2  -1.975296259091019E1  -1.747836555585475E2  -1.358247073151064E1   1.137688067170058E1  
                        -3.740115794440310E1  -1.045776269240635E2  -2.302953714592639E1  -4.434407509443920  -1.320783589163593E1  -1.519286486754635  -3.478111162989870E1  -2.742949168238122  
                        -1.972653176991588E1  -1.754787590690739E2  -1.330312057227465E1  -2.012924961082069E1  -2.881363173111360E1  -1.712577441794588E2  -3.790923360645463E1  -1.010288720578679E2  
                        -1.355158804065309E1   2.725324865229242E1  -3.483222309666114E1  -4.712457360915624  -3.754621815610309E1  -8.446820946749421E1  -2.276480423099639E1  -3.364614822033800E1  
                        
 2.137831831831832E10   -2.022546347692087E1   1.599365067720821E2  -3.806408791288558E1   3.126014328521383E1  -1.978106660415217E1   1.400023031647664E2  -1.355190490624150E1   1.628399973554740E2  
                        -3.791103426401242E1   4.904619887014109E1  -2.509921671365311E1  -1.360393394077759E1  -1.333555631847425E1   1.494262606043008E2  -3.476754684035853E1  -1.434823318789834E1  
                        -1.978192250725429E1   1.399449979529227E2  -1.328295538195903E1   1.314668470468744E2  -3.142522499801879E1  -1.244010704749135E2  -3.763581618412386E1   5.570178388868071E1  
                        -1.356056159878125E1   1.790102557525158E2  -3.475654445274562E1  -1.626551620374729E1  -3.772900900954846E1   7.109680301129727E1  -2.674817702846802E1  -4.658168245230389E1  
                        
 2.144837837837838E10   -2.357655650565956E1   1.624031561260205E2  -3.694563666435494E1  -1.719004994727011E2  -1.967404634183038E1   9.507659748002227E1  -1.354635294636039E1  -4.602754420614954E1  
                        -3.683857488533368E1  -1.515148185126560E2  -2.393319791932835E1  -2.330643327343237E1  -1.334227164116917E1  -5.861761834018555E1  -3.467928645400413E1  -2.671907404113436E1  
                        -1.973425400355498E1   9.638262694108376E1  -1.335021251374183E1  -7.663122421931277E1  -4.311872210730052E1   1.408515917536924E2  -3.688882340176872E1  -1.533376765178474E2  
                        -1.366290326738708E1  -2.849862090823168E1  -3.472871226909525E1  -2.799668351798751E1  -3.694447902220145E1  -1.364066911980006E2  -2.469764301067346E1  -6.092738400251487E1  
                        
 2.151843843843844E10   -2.615988636331799E1   1.250281992637174E2  -3.631393946998455E1  -2.448926253045088E1  -1.965153798506854E1   5.001688940379884E1  -1.357481417076369E1   1.055959870568240E2  
                        -3.598787702388803E1  -5.498807264744435  -2.222894018025451E1  -2.194973472959039E1  -1.328002116552335E1   9.278295294747554E1  -3.476593880608314E1  -3.842361222165843E1  
                        -1.963601789322352E1   5.117715213233866E1  -1.341289370303957E1   7.493500403774691E1  -3.499367748271354E1   8.339248663262659E1  -3.752112938752426E1  -3.553018626044113  
                        -1.360279343554972E1   1.233478884706043E2  -3.474067416203355E1  -4.001295948363706E1  -3.750665679403237E1   1.220372088577105E1  -2.263144784850332E1  -5.797457926418036E1  
                        
 2.158849849849850E10   -3.825966728897382E1   7.114415624357496E1  -3.634216144766459E1   1.248568678644120E2  -1.962527503548447E1   6.200867671482246  -1.357610858999814E1  -1.023086660371016E2  
                        -3.626468398321121E1   1.444118280913646E2  -2.467393541817910E1  -1.792940457307082E1  -1.339740575247006E1  -1.151635144476538E2  -3.474064438258450E1  -5.036605323546345E1  
                        -1.967805429871102E1   6.526488559446609  -1.337248579382691E1  -1.339255364489528E2  -2.877792382349707E1  -1.515582499489740E2  -3.717134653681703E1   1.584901459277754E2  
                        -1.361128411555430E1  -8.526792179230212E1  -3.472904513129414E1  -5.221524683900268E1  -3.725693314815155E1   1.748884539995918E2  -2.303698527546682E1  -5.965357872824539E1  
                        
 2.165855855855856E10   -3.509381088694845E1  -6.915923528715776E1  -3.646604368601948E1  -8.030297109846899E1  -1.953533343306670E1  -3.814363969189532E1  -1.366152202912241E1   4.932429343672253E1  
                        -3.629715421632665E1  -6.124757047000814E1  -2.407134178797135E1  -4.377083932754741E1  -1.344926394544559E1   3.711724359533109E1  -3.480887870188497E1  -6.217926690318620E1  
                        -1.958561613784231E1  -3.861782007049001E1  -1.347056971738491E1   1.742549264914910E1  -3.362236741884665E1  -2.871998593098778E1  -3.601392468644713E1  -5.435341477392957E1  
                        -1.370812592097646E1   6.621121234460628E1  -3.478000002616560E1  -6.452458549540236E1  -3.588367062230663E1  -3.695226194871691E1  -2.374288442283067E1  -7.661687805130718E1  
                        
 2.172861861861862E10   -2.851252441686710E1  -6.058297843667238E1  -3.596278208674053E1   7.287995554429629E1  -1.954056866386403E1  -8.303324045935013E1  -1.367617878330525E1  -1.585259934888417E2  
                        -3.580093544031972E1   9.061098180082342E1  -2.221187342014228E1  -4.417792191246220E1  -1.336774008370910E1  -1.708175610757732E2  -3.478392503017645E1  -7.355299049850211E1  
                        -1.961534043691307E1  -8.435667240043331E1  -1.345947160374933E1   1.690596529848051E2  -3.946953163342649E1  -1.357595228059659E2  -3.682141876345544E1   9.408317658078113E1  
                        -1.368150005969673E1  -1.421974977973848E2  -3.478488907843404E1  -7.602148598907436E1  -3.675964976257327E1   1.124581041352654E2  -2.432955930125857E1  -9.977997170402784E1  
                        
 2.179867867867868E10   -2.659664176834612E1  -1.017892936909001E2  -3.580103167627384E1  -1.379738659759549E2  -1.953314481379073E1  -1.269438247562531E2  -1.363797089442483E1  -6.065699916747673  
                        -3.575375310068093E1  -1.208102481886448E2  -2.503206447891553E1  -3.349047262741430E1  -1.347649599960847E1  -2.039515639051779E1  -3.473150900412634E1  -8.556499436734032E1  
                        -1.951350869571294E1  -1.283197368382545E2  -1.350109994633538E1  -3.909005714440401E1  -3.228620762069410E1   1.406382190788448E2  -3.643794624338652E1  -1.044662032541627E2  
                        -1.370952904818806E1   8.606646827083990  -3.482898966427941E1  -8.814532473098082E1  -3.636632610052057E1  -8.702824473889777E1  -2.233520140542547E1  -9.155935643785526E1  
                        
 2.186873873873874E10   -2.813244238314018E1  -1.414480198003398E2  -3.599022014891129E1   1.665831797353451E1  -1.939222609637251E1  -1.731758843043800E2  -1.371954478814070E1   1.457428151464690E2  
                        -3.593441779845263E1   3.259149785826843E1  -2.745043373431410E1  -6.742127615133992E1  -1.351165449837814E1   1.311459705175858E2  -3.478009244792518E1  -9.672279192351699E1  
                        -1.945434840371326E1  -1.733046019371948E2  -1.353844642215621E1   1.140793758164523E2  -2.689442365688398E1  -1.256017419756442E2  -3.520363690579567E1   4.355976568721196E1  
                        -1.372755081527801E1   1.603973568756204E2  -3.478740470317889E1  -9.940288709275990E1  -3.516243146948888E1   5.717137923021607E1  -2.269127140506006E1  -9.159954760076768E1  
                        
 2.193879879879880E10   -2.741302366282814E1   1.790468447139610E2  -3.541568368180430E1   1.711415276504251E2  -1.953028791405540E1   1.413162153271957E2  -1.370374554856271E1  -6.253360304659547E1  
                        -3.546728219116482E1  -1.724153270072677E2  -2.326794007717056E1  -5.538007237550939E1  -1.344311713843885E1  -7.795226982603170E1  -3.468944824946255E1  -1.085029996043423E2  
                        -1.955075036027375E1   1.429695955762781E2  -1.352677740556140E1  -9.388914743655599E1  -4.943998786519801E1   6.101555497316268E1  -3.635546315792700E1  -1.656290284277926E2  
                        -1.375587632834567E1  -4.772675681047045E1  -3.478473908306464E1  -1.112476243657426E2  -3.634586685718183E1  -1.540405370879364E2  -2.464645333778809E1  -1.045241027817634E2  
                        
 2.200885885885886E10   -2.395041788321103E1   1.436245340260030E2  -3.459256972358626E1  -4.033570226925747E1  -1.925497246347763E1   9.602806439278895E1  -1.377293685011756E1   8.903220109929590E1  
                        -3.464929541575805E1  -2.332909105948185E1  -2.574133170093587E1  -4.833034620502242E1  -1.346082937471514E1   7.274045659839548E1  -3.478189352368182E1  -1.207487133034121E2  
                        -1.935533321114708E1   9.892497226018719E1  -1.352165304085630E1   5.796810207970418E1  -4.135693143217731E1  -1.746958995272436E2  -3.573934249379298E1  -6.730262911027526  
                        -1.381346404215293E1   1.040101201284850E2  -3.479282745910653E1  -1.231371468035408E2  -3.572553711733006E1   4.245311185633570  -2.231926898413586E1  -1.174746950816854E2  
                        
 2.207891891891892E10   -2.389088562436568E1   1.016611622434362E2  -3.486319122279264E1   1.096646709980864E2  -1.933405650680163E1   5.036313188463679E1  -1.372189446986253E1  -1.194271823602059E2  
                        -3.502533038026868E1   1.279844931732202E2  -2.737575341886620E1  -7.627178834001650E1  -1.349905223293392E1  -1.354490192624135E2  -3.464611380763972E1  -1.316876780535873E2  
                        -1.936088335853810E1   5.376524548075739E1  -1.354300165012992E1  -1.500832472980768E2  -2.969823172607667E1   1.537423769441370E2  -3.492556418394203E1   1.421347684653594E2  
                        -1.381092780381769E1  -1.037179252408707E2  -3.478137940239427E1  -1.342467844775864E2  -3.491543170361990E1   1.530231375574025E2  -2.292956918766220E1  -1.091988649356677E2  
                        
 2.214897897897898E10   -2.379369161963418E1   9.440013565142202E1  -3.454974688216671E1  -9.645522230295168E1  -1.934139705354981E1   6.178501381913433  -1.383464807071971E1   3.201299573102280E1  
                        -3.465242690840865E1  -7.724347640884015E1  -2.532292382728446E1  -7.745408500875480E1  -1.350092182649719E1   1.656642937504521E1  -3.468685591200082E1  -1.442188404838778E2  
                        -1.940761275732800E1   9.688828382460988  -1.358579373882361E1   1.677938738313695  -3.533055269118802E1  -1.130939900115033E2  -3.532684454579721E1  -6.770845002342017E1  
                        -1.380327415548671E1   4.816504392228832E1  -3.468065957392729E1  -1.463515395177098E2  -3.529140062840861E1  -5.526033718926219E1  -2.618196603175235E1  -1.104919394381644E2  
                        
 2.221903903903904E10   -2.538560072962506E1   7.084823602823106E1  -3.402749071977387E1   5.193796457253281E1  -1.918432015566296E1  -3.903403938801927E1  -1.387368506858303E1  -1.764545632125891E2  
                        -3.416142450060505E1   7.174928762755928E1  -2.644832900937798E1  -7.164871763250686E1  -1.355008425947556E1   1.679775569257292E2  -3.468626317294403E1  -1.563273665847966E2  
                        -1.924640577456507E1  -3.537054563997182E1  -1.360915470966341E1   1.525267275192259E2  -5.106468831920423E1  -1.512401915287142E2  -3.481208641634163E1   8.706502675577582E1  
                        -1.390586724579138E1  -1.596895839286617E2  -3.473556035415543E1  -1.586130769542820E2  -3.473052904324199E1   1.007470875722229E2  -2.326447006999130E1  -1.301863846953576E2  
                        
 2.228909909909910E10   -3.489148233930032E1   3.724925990951059E1  -3.403826377306106E1  -1.587305847200853E2  -1.926922147871802E1  -8.369439745738876E1  -1.385944835509808E1  -2.528037160749601E1  
                        -3.406886598709027E1  -1.371386297492199E2  -2.992214852404822E1  -9.524327500094458E1  -1.367372080779560E1  -3.852132257307953E1  -3.465355523076187E1  -1.690123545363267E2  
                        -1.931841889444007E1  -8.161613606306577E1  -1.363898053698361E1  -5.652272878147472E1  -4.122850705288763E1   1.558097830284263E2  -3.437910255054300E1  -1.265478608387827E2  
                        -1.394950358148095E1  -7.578550130430630  -3.467375641829776E1  -1.697901081330577E2  -3.442511719570264E1  -1.106119797301886E2  -2.361372361896957E1  -1.263181107955184E2  
                        
 2.235915915915916E10   -3.563400437074710E1   1.353913397069734E2  -3.402437798954035E1  -6.490350140597331  -1.922206950550288E1  -1.269791299538942E2  -1.393531595428763E1   1.259794303107576E2  
                        -3.401090028708447E1   1.489021527599630E1  -2.659832234782317E1  -8.361849217733909E1  -1.351636332013151E1   1.135385008470539E2  -3.467385303529514E1   1.788254934417121E2  
                        -1.926892217038734E1  -1.263360032166603E2  -1.367345514866610E1   9.457874384377047E1  -2.791326049645186E1   1.764348636125824E2  -3.438104547695387E1   2.430596241280448E1  
                        -1.390113878239243E1   1.445091051655288E2  -3.460210001645849E1   1.779043773395653E2  -3.444597863237504E1   4.305163502135341E1  -2.485383562149682E1  -1.306977356500914E2  
                        
 2.242921921921922E10   -2.552333163400527E1   1.769227788872381E2  -3.358099950374751E1   1.453769705609120E2  -1.915231406964353E1  -1.727456345769182E2  -1.390556600397937E1  -8.161276106647108E1  
                        -3.370074405989855E1   1.662223645479021E2  -2.783494944072587E1  -8.376049221702920E1  -1.361939342802367E1  -9.518557296051485E1  -3.460115563620651E1   1.677003701130672E2  
                        -1.921284270425856E1  -1.722560573798102E2  -1.360152999590968E1  -1.137682334786385E2  -3.313533101643252E1  -1.677513256256610E2  -3.404204702148003E1   1.764103120097864E2  
                        -1.397892447698747E1  -6.358812647353693E1  -3.465761175219383E1   1.659171082721718E2  -3.400872488340011E1  -1.672441338152816E2  -2.396313863538500E1  -1.345684826150065E2  
                        
 2.249927927927928E10   -2.371550483896735E1   1.673308069865163E2  -3.341499553123077E1  -6.448605634295113E1  -1.927741026167812E1   1.414784268938521E2  -1.397758803446020E1   6.978944412673241E1  
                        -3.354217890111762E1  -4.380458504811984E1  -2.771116994218281E1  -9.162716009899786E1  -1.365442120433919E1   5.614062281320145E1  -3.465157796345064E1   1.559718900351770E2  
                        -1.926904344789004E1   1.437843399389298E2  -1.364365757323938E1   3.880676630430065E1  -2.979457600902433E1   8.617968063611791E1  -3.400278115801620E1  -3.280820255400229E1  
                        -1.402989399588044E1   8.843822507964346E1  -3.466159001902399E1   1.547866185592660E2  -3.404356408853996E1  -1.641727794962753E1  -2.539452274808168E1  -1.279445184511633E2  
                        
 2.256933933933934E10   -2.390344629001954E1   1.341429325311366E2  -3.335830275618854E1   8.560272745640468E1  -1.912052342078395E1   9.498394206065285E1  -1.403734681615714E1  -1.378964641504198E2  
                        -3.334809966578880E1   1.052184748810176E2  -2.857170790087856E1  -8.215302842431116E1  -1.361460893273892E1  -1.540253846815220E2  -3.474188904676755E1   1.439471419852663E2  
                        -1.918881741206787E1   9.989850060172167E1  -1.370054042784334E1  -1.681772743813017E2  -2.732308161341782E1   9.911607106101998E1  -3.404679972217626E1   1.216435605075041E2  
                        -1.402367493975289E1  -1.199728343414889E2  -3.466032082895640E1   1.421959830375205E2  -3.364884505737409E1   1.340377658918417E2  -2.552077686829482E1  -1.519355845135379E2  
                        
 2.263939939939940E10   -2.637335274738825E1   1.234089563194020E2  -3.343306430069951E1  -1.219739905662310E2  -1.927095806380683E1   4.955750350591349E1  -1.398483163060959E1   1.401615749440088E1  
                        -3.341237913265897E1  -1.025951315372538E2  -2.770228694042607E1  -9.158611607446024E1  -1.380520226111256E1  -2.386542797115170  -3.458717695919501E1   1.323008433070625E2  
                        -1.925949471316356E1   5.412822180810448E1  -1.374725105327551E1  -1.696447763526672E1  -3.907803820977804E1   6.945735960329762E1  -3.367177205418265E1  -8.943454268950693E1  
                        -1.407630409478521E1   3.136426052495893E1  -3.459799784359157E1   1.308572459446007E2  -3.376245586468106E1  -7.585809087284576E1  -2.485943747049035E1  -1.406711368805704E2  
                        
 2.270945945945946E10   -3.436211341807810E1   1.075501109104601E2  -3.304016730685540E1   2.855320337872741E1  -1.938113237761482E1   3.998375038130305  -1.401292724986695E1   1.655526541449068E2  
                        -3.304409264824642E1   4.851316537329265E1  -2.802890534207572E1  -1.135719074573059E2  -1.376766757060485E1   1.484825589962756E2  -3.459141883643686E1   1.200316486923629E2  
                        -1.939457863891967E1   1.033107973126149E1  -1.374036901170412E1   1.347932857363447E2  -2.666819017382937E1  -4.379871186619380E1  -3.408395394184272E1   6.505660766186153E1  
                        -1.415774159821174E1  -1.766882858707702E2  -3.460541014478802E1   1.181014837683458E2  -3.411232675869579E1   7.709285188104104E1  -2.647574754905242E1  -1.387518991201329E2  
                        
 2.277951951951952E10   -3.959967968022011E1  -2.645820803453431E1  -3.297101004348656E1   1.768325858442634E2  -1.910325423255765E1  -4.200488198148065E1  -1.410538304880734E1  -4.276803709998164E1  
                        -3.286560869509707E1  -1.629898583691029E2  -2.677662661188404E1  -7.238437486421132E1  -1.372528800510679E1  -6.070755809547080E1  -3.462823667641678E1   1.086876532433040E2  
                        -1.913507868406682E1  -3.388308109375622E1  -1.380918065143187E1  -7.239068803137823E1  -3.921969861694628E1  -1.854871988982048E1  -3.309482859824484E1  -1.410831946065562E2  
                        -1.413793062475186E1  -2.489012453890580E1  -3.464225737642330E1   1.060794942442511E2  -3.331842762040826E1  -1.310927056548464E2  -2.938513915484466E1  -1.757495357510022E2  
                        
 2.284957957957958E10   -3.383193985723106E1  -1.502074844854866E2  -3.305196998412195E1  -3.162918229033718E1  -1.943734043057734E1  -8.694689454382116E1  -1.410704141653266E1   1.097937061318107E2  
                        -3.301059594064139E1  -1.176473699396681E1  -2.991236452225731E1  -8.796579930456031E1  -1.390037723076805E1   9.197096804655095E1  -3.454689738966218E1   9.648006608017728E1  
                        -1.939064905383824E1  -7.976943269110704E1  -1.381626194551922E1   7.936441418095879E1  -2.449761968676418E1  -1.386324947786072E2  -3.312848975424348E1   5.169596757065130  
                        -1.414664300336819E1   1.263414124835670E2  -3.456800851885335E1   9.381021985350812E1  -3.308131285792566E1   1.515395948297199E1  -2.699162349031063E1  -1.707085735754712E2  
                        
 2.291963963963964E10   -2.897232172068696E1   1.692867620832856E2  -3.291733825575745E1   1.195213191862559E2  -1.942452371787659E1  -1.288059446777519E2  -1.414540785214640E1  -9.923236708783954E1  
                        -3.285129985297071E1   1.396186751195403E2  -2.798849357050529E1  -9.632312260877347E1  -1.384259226004449E1  -1.143983676402537E2  -3.443316807419409E1   8.394031127173209E1  
                        -1.940854269288758E1  -1.238444036011664E2  -1.383291887810594E1  -1.297653792137371E2  -2.486123001211165E1  -1.717011488509466E2  -3.330630929411534E1   1.599992674039949E2  
                        -1.419299441165284E1  -8.194286779414468E1  -3.448108287898063E1   8.152406828873208E1  -3.330597323258319E1   1.721113374396948E2  -2.953525190488610E1  -1.531115995854488E2  
                        
 2.298969969969970E10   -2.509841075140655E1   1.370874161744960E2  -3.280184838669373E1  -9.051827983667641E1  -1.916678045067594E1  -1.742660443704727E2  -1.428323358198416E1   5.306291181761846E1  
                        -3.276411939963696E1  -7.203012005651156E1  -2.431668966425300E1  -7.887176957002630E1  -1.389937381279484E1   3.745599285034833E1  -3.452819373479829E1   7.154886178433405E1  
                        -1.921536460548700E1  -1.723192115926899E2  -1.389417053224875E1   1.993729952085471E1  -2.868936200389504E1   1.449716381581383E2  -3.220068522166917E1  -5.354061816886270E1  
                        -1.427929682562885E1   6.979784364491434E1  -3.454834785319901E1   6.871010046451086E1  -3.197505584087912E1  -3.877728362713094E1  -3.233109373299707E1  -1.767776548523210E2  
                        
 2.305975975975976E10   -2.218275174188437E1   9.566538822791128E1  -3.284921076826441E1   6.155854873776963E1  -1.954876982383383E1   1.409944297559514E2  -1.428595303183513E1  -1.547608287392436E2  
                        -3.283299097673270E1   7.915290956002083E1  -2.873298834867967E1  -7.312047783752703E1  -1.394693827883550E1  -1.695729110741235E2  -3.451901203741554E1   6.009082846781735E1  
                        -1.959534438260625E1   1.414732005624332E2  -1.392441115620125E1   1.718524879701711E2  -2.001912445864414E1   1.058378275730103E2  -3.271307440934102E1   9.234492067666888E1  
                        -1.429664231775767E1  -1.384093908394350E2  -3.452211893488484E1   5.747999481817946E1  -3.270751036213461E1   1.078180595603042E2  -3.126022592721946E1  -1.670687276601755E2  
                        
 2.312981981981982E10   -2.069214630733816E1   6.091506629355565E1  -3.280596601859143E1  -1.465133522717657E2  -1.945932729375526E1   9.650604760512634E1  -1.429936404928017E1  -2.587156345520350  
                        -3.275923504733671E1  -1.299291098491093E2  -2.586790386487837E1  -1.037538807009598E2  -1.385398067224509E1  -1.998731501979147E1  -3.455967615913826E1   4.740004789005850E1  
                        -1.953165072443153E1   9.895433261418033E1  -1.389122130479305E1  -3.529340605057772E1  -2.413324095393650E1   6.082218365585138E1  -3.293962760113762E1  -1.118082272971117E2  
                        -1.428247220617671E1   1.333236533705311E1  -3.451181725663444E1   4.545193290225851E1  -3.293124032113076E1  -9.785577023262520E1  -3.627354621154783E1   1.596649831694187E2  
                        
 2.319987987987988E10   -2.043591455656715E1   3.760122934360182E1  -3.250351902115627E1   3.399595974708624  -1.937515497293912E1   4.786396186867103E1  -1.436170877238830E1   1.486934796132174E2  
                        -3.252854065856542E1   2.078570146828266E1  -2.472655206020099E1  -9.330168947702340E1  -1.403100255450866E1   1.289173735520036E2  -3.468139677616313E1   3.449337699758859E1  
                        -1.944133463774084E1   5.628379574858539E1  -1.400649220726448E1   1.183268717239598E2  -2.333042942395541E1   6.508539592050118  -3.245402330196164E1   4.005830127278337E1  
                        -1.436130285030044E1   1.649723618692286E2  -3.457661194926339E1   3.301483978581425E1  -3.257147879972931E1   4.863820656788416E1  -3.273318370106617E1   1.094563988986364E2  
                        
 2.326993993993994E10   -2.381051416671269E1   4.612852958149635  -3.240966943052076E1   1.529016817080637E2  -1.969038105868511E1   7.537023787446627E-1  -1.443477766363313E1  -5.970312878966620E1  
                        -3.257829936320797E1   1.707612837037381E2  -2.746823987477095E1  -1.024625756047612E2  -1.416093853726888E1  -8.005473768325950E1  -3.467572128251497E1   2.311178887431647E1  
                        -1.966774616504401E1   1.125733655978485E1  -1.406166892915545E1  -8.867892149553703E1  -1.932895759400382E1  -2.773441021807996E1  -3.283824439196901E1  -1.704144344238469E2  
                        -1.439830347224091E1  -4.320449283254798E1  -3.460620785614818E1   2.092730826335080E1  -3.302178375434201E1  -1.638230087842276E2  -3.921182596160571E1   1.790051463284718E2  
                        
 2.334000000000000E10   -2.691060673666977E1  -6.206539733479720E1  -3.246240674249506E1  -5.733899243520572E1  -1.978159226390824E1  -4.335864149123985E1  -1.441610291967373E1   9.220722128725271E1  
                        -3.266775526825398E1  -3.778693427999161E1  -2.689190536284452E1  -1.031132374055767E2  -1.414673526421735E1   7.231667944947780E1  -3.463583075391929E1   1.130209290113407E1  
                        -1.973722806883399E1  -3.224599299414761E1  -1.406228636951163E1   6.297545537353601E1  -2.109680945499465E1  -7.802715691968081E1  -3.307827245895883E1  -1.643716664406825E1  
                        -1.444011073673861E1   1.090547243928111E2  -3.452120423875083E1   9.050768620064327  -3.312157596203930E1  -9.719756600760180  -4.313653857539084E1   1.579888224524083E2  
                        
 2.341006006006006E10   -2.480893860296203E1  -1.635264801777576E2  -3.252212706263877E1   9.227675211911185E1  -1.971060174493945E1  -8.826217519094344E1  -1.443163943441883E1  -1.159619590618635E2  
                        -3.259945625080190E1   1.134402343831831E2  -2.487139807934795E1  -1.009783132814102E2  -1.413973204194750E1  -1.365344443581962E2  -3.463437426041265E1  -7.928722705961585E-1  
                        -1.971290831994457E1  -7.718545616790416E1  -1.412679944010097E1  -1.458316597955532E2  -1.886069947117655E1  -1.253431520575683E2  -3.262006081267441E1   1.348481898054375E2  
                        -1.447272224371995E1  -9.925159049834377E1  -3.451269363995318E1  -4.639876963221699  -3.258182592042339E1   1.416587001516866E2  -3.287653130802077E1   7.718908691721425E1  
                        
 2.348012012012012E10   -1.835791383632232E1   1.626282685774972E2  -3.247821402991753E1  -1.173223562157915E2  -1.971984676540429E1  -1.333882766442133E2  -1.450390943733845E1   3.552808445092540E1  
                        -3.252717648953571E1  -9.485320746615957E1  -2.446141210437699E1  -1.124153359599098E2  -1.431630236049370E1   1.660865020625527E1  -3.461014262029901E1  -1.315302440063507E1  
                        -1.980038605182037E1  -1.226226890406608E2  -1.416151789907075E1   5.354396138962601  -1.808186987247927E1  -1.562965928097770E2  -3.249335320729971E1  -7.548176126731264E1  
                        -1.452605728927660E1   5.243155612646805E1  -3.461433099350694E1  -1.734801711584592E1  -3.240916094838091E1  -6.838535909744387E1  -3.791589687307649E1   9.903003925772941E1  
                        
 2.355018018018018E10   -1.582549195475131E1   1.358268923892073E2  -3.259879766033214E1   3.190101253341836E1  -1.996053137748305E1  -1.775927830314460E2  -1.462246490902484E1  -1.733003067248241E2  
                        -3.266028117653400E1   5.488333859339073E1  -2.415920069416398E1  -1.119847922860512E2  -1.409844701481917E1   1.694325484950444E2  -3.463762349105060E1  -2.546533552147955E1  
                        -1.994443426596828E1  -1.676522049402739E2  -1.419245938939085E1   1.558503264760374E2  -1.815210839532553E1   1.447969302977438E2  -3.246706656106043E1   7.311330302765084E1  
                        -1.459409452381238E1  -1.546806642041021E2  -3.468558170439357E1  -2.997525156522467E1  -3.239589540279439E1   8.280356189123630E1  -4.309316467709979E1   8.344963456655252E1  
                        
 2.362024024024024E10   -1.476562722457993E1   9.978675542036552E1  -3.293336658483688E1  -1.764114518488726E2  -1.998397120916003E1   1.394882411430744E2  -1.464716470134040E1  -2.137011774502007E1  
                        -3.287641246710988E1  -1.534168587553319E2  -2.430421319361497E1  -1.127666380639926E2  -1.408728565654174E1  -3.794906804033833E1  -3.467325275973365E1  -3.855944070340722E1  
                        -2.000115225665460E1   1.459941831187723E2  -1.423106382973325E1  -5.390703813004026E1  -1.532895084972148E1   1.074416438341049E2  -3.251195904630490E1  -1.388872362227729E2  
                        -1.454605580350132E1  -2.811697417992467  -3.472885137594282E1  -4.165600578026966E1  -3.229179594235307E1  -1.261562379802714E2  -3.566198482851129E1   5.900619127617622E1  
                        
 2.369030030030030E10   -1.487739657078961E1   7.262155031907572E1  -3.262902060113165E1  -2.449432778933045E1  -1.999312997709621E1   9.602865064102198E1  -1.468836468855825E1   1.297701857815501E2  
                        -3.263900883349867E1  -2.269455472177410  -2.395702541174880E1  -1.358388874866561E2  -1.424139298467136E1   1.149267932063934E2  -3.476110334200433E1  -5.093733039156465E1  
                        -2.001111810517791E1   9.981230554027199E1  -1.416984059495781E1   9.618610266624798E1  -1.721277448580111E1   6.848436861944506E1  -3.245400399876992E1   1.081120542914967E1  
                        -1.466460616861630E1   1.489183548557608E2  -3.474890122468832E1  -5.406023254793614E1  -3.243865743486261E1   2.522508355354846E1  -3.225890948021456E1   2.569213729705515E1  
                        
 2.376036036036036E10   -1.635383338312541E1   3.258484857134823E1  -3.271479740488483E1   1.251477406777098E2  -2.014253468423879E1   4.934697616528589E1  -1.470132650680837E1  -7.813778912789053E1  
                        -3.264114456936905E1   1.480235182365950E2  -2.237780277292542E1  -1.294581211875023E2  -1.433614209757598E1  -9.534283120228207E1  -3.496068313658229E1  -6.457811688578062E1  
                        -2.004145695730344E1   5.456832340619624E1  -1.435602138323216E1  -1.118050825989725E2  -1.508034525538647E1   2.094684013141356E1  -3.237921513008519E1   1.591451808310683E2  
                        -1.471920132357495E1  -5.831246485800850E1  -3.495429342534141E1  -6.592363498746565E1  -3.226742698978371E1   1.732148197556294E2  -3.127309739150849E1   2.064177959186219E1  
                        
 2.383042042042042E10   -1.693346071471727E1  -1.351008433249215E1  -3.266771036659743E1  -8.312494280072349E1  -2.042318097957854E1   2.409487621478747  -1.474403775447023E1   7.418414846056975E1  
                        -3.254627181099767E1  -6.235566310624817E1  -2.348081602970123E1  -1.262331478100999E2  -1.449662019557992E1   5.424545620005472E1  -3.513863657574732E1  -7.533286288099413E1  
                        -2.036292776708122E1   1.240371183283112E1  -1.441495413771780E1   4.340514282645030E1  -1.456357788407626E1  -1.561727296455478E1  -3.337745828347625E1  -4.765031830447116E1  
                        -1.468085357789729E1   9.290906101166797E1  -3.507920368557310E1  -7.713208177129404E1  -3.332214454664835E1  -4.008422969889674E1  -4.237735094746875E1   5.817513655635303  
                        
 2.390048048048048E10   -1.811535270507600E1  -6.493097501230561E1  -3.255610870241954E1   6.675716473921662E1  -2.025061120794497E1  -4.180268148416052E1  -1.474488663339910E1  -1.336034922527628E2  
                        -3.268207254832212E1   8.737579382152450E1  -2.494914083348000E1  -1.505216039442048E2  -1.446323297190032E1  -1.549658032119725E2  -3.496685253456914E1  -8.789234074346426E1  
                        -2.021437735654408E1  -3.001060773034372E1  -1.429296644970154E1  -1.634570939807572E2  -1.638119677880784E1  -6.771692251291258E1  -3.313153981618547E1   1.117943876844117E2  
                        -1.478275051331717E1  -1.155190288005855E2  -3.497287588436458E1  -8.922554271680754E1  -3.337726290861556E1   1.175058787215769E2  -3.683810551103265E1  -9.841877140499969E1  
                        
 2.397054054054054E10   -1.702341227251686E1  -1.214873166445990E2  -3.282053364273181E1  -1.444157186468948E2  -2.033913971228608E1  -8.908779014952773E1  -1.474854894928751E1   1.813272736772411E1  
                        -3.277344193392272E1  -1.226694492620518E2  -2.128958594230116E1  -1.450550553569289E2  -1.465410954343201E1  -4.440157906113454  -3.534233934126753E1  -9.999901405822820E1  
                        -2.032208762903201E1  -7.576433309417031E1  -1.456725872246640E1  -1.164044979780224E1  -1.381833053659620E1  -9.753799394591843E1  -3.260859440696517E1  -1.005230858130419E2  
                        -1.481427072888231E1   3.550452186599423E1  -3.525670551505129E1  -1.028851843705719E2  -3.270684781586214E1  -9.640414268369443E1  -4.037362672099578E1  -7.702340605253443E1  
                        
 2.404060060060060E10   -1.544509868556844E1  -1.669644791657413E2  -3.299680893586179E1   7.804249517454184  -2.049644907408538E1  -1.243032188965756E2  -1.481612465452553E1   1.711149773303193E2  
                        -3.305004168845893E1   2.633750354743473E1  -2.332722679005734E1  -1.444187554665890E2  -1.461355214301232E1   1.553371219284695E2  -3.517313713133660E1  -1.113941222732928E2  
                        -2.068391904282483E1  -1.252722633558181E2  -1.461534141526577E1   1.373435812964687E2  -1.479456793564177E1  -1.455570637358829E2  -3.324351070153635E1   4.431053077145069E1  
                        -1.486319230040312E1  -1.732429772224480E2  -3.535132717355324E1  -1.130584067685670E2  -3.334610427162374E1   6.114860132511780E1  -5.746956380766210E1   2.230267438549099E1  
                        
 2.411066066066066E10   -1.396881370535544E1   1.469390073122393E2  -3.318699284733730E1   1.574872452744013E2  -2.028742880728177E1  -1.677345720992660E2  -1.481591350135167E1  -3.835478118255550E1  
                        -3.313215232438647E1   1.775914375270325E2  -2.328281149232990E1  -1.676610057172570E2  -1.438023416280508E1  -5.523240921201672E1  -3.537975216691221E1  -1.243849803992474E2  
                        -2.062191017971419E1  -1.690345277921198E2  -1.449327110375333E1  -7.308002146691172E1  -1.488905019173947E1   1.670732995717962E2  -3.279750068184429E1  -1.595128566045658E2  
                        -1.504932375201205E1  -2.059745730247265E1  -3.519862979818691E1  -1.267363574670771E2  -3.284600437453568E1  -1.413971068103998E2  -3.440637367753320E1  -1.759691605298607E2  
                        
 2.418072072072072E10   -1.311148258361528E1   1.075730191677137E2  -3.339427562415012E1  -5.017248165999504E1  -2.037225063375345E1   1.467649243246240E2  -1.501447472745937E1   1.144608953259909E2  
                        -3.323738848962184E1  -3.117716406766319E1  -2.152874878108339E1  -1.757747157995408E2  -1.443664441033691E1   9.774062639645783E1  -3.545882174117749E1  -1.374829460744899E2  
                        -2.055943397444901E1   1.449715410338177E2  -1.475895049741021E1   7.876697558299169E1  -1.356857935500241E1   1.370428114486154E2  -3.229439635358383E1  -1.446897482902065E1  
                        -1.498874065701506E1   1.308014832804748E2  -3.549746823523012E1  -1.393518482389526E2  -3.197109279699273E1   3.889295653520279  -3.529698016035468E1  -1.323438440003957E2  
                        
 2.425078078078078E10   -1.182444851674854E1   7.339775537808322E1  -3.343633198250426E1   1.013778461310755E2  -2.071984793170324E1   9.831691278238372E1  -1.506704357588425E1  -9.405549314206581E1  
                        -3.326047102938706E1   1.200488175487496E2  -2.239317244280710E1  -1.705449467572527E2  -1.457327775951832E1  -1.096659865584589E2  -3.562771010143607E1  -1.476999547540413E2  
                        -2.097504124607035E1   1.009646754067475E2  -1.469281644442355E1  -1.287158272698866E2  -1.319554911727573E1   8.266436488502671E1  -3.310992671107530E1   1.344437278878251E2  
                        -1.501301280309180E1  -7.694076701611114E1  -3.561558546547144E1  -1.511952861956087E2  -3.344521638663743E1   1.496166400765763E2  -6.259916484362909E1  -9.370203065086952E1  
                        
 2.432084084084084E10   -1.207015547844200E1   3.714380747986845E1  -3.373838556833479E1  -1.083234954411874E2  -2.086347562051589E1   5.860208298235569E1  -1.509140790601253E1   5.856562479647317E1  
                        -3.354138991365350E1  -8.933470572200648E1  -2.309314412093976E1   1.726570174806001E2  -1.471649434139284E1   4.304237798337235E1  -3.561084648205829E1  -1.592809430467351E2  
                        -2.088130645775734E1   5.817877072126907E1  -1.461504474251973E1   2.310054125602710E1  -1.342252677466484E1   4.290011617317510E1  -3.333622209693319E1  -7.124971179949125E1  
                        -1.511498707826948E1   7.520296260680536E1  -3.574862516431486E1  -1.625347368386999E2  -3.331805598673240E1  -5.511295103609638E1  -3.606196860677895E1   1.746351275232055E2  
                        
 2.439090090090090E10   -1.302825730523656E1   7.703710847018569E-1  -3.364520705086076E1   4.420211183774704E1  -2.079588118156960E1   1.270662395458821E1  -1.495154274862372E1  -1.491910485451033E2  
                        -3.370308699489021E1   6.247395773854034E1  -2.184878912619636E1   1.664371385630931E2  -1.492011003989319E1  -1.663716980908274E2  -3.580229835692679E1  -1.727399762363541E2  
                        -2.086731199931180E1   1.259096647088912E1  -1.481919352532462E1   1.743243619444693E2  -1.296336783394701E1   3.168364545248654  -3.324749686149541E1   7.781445453155449E1  
                        -1.503024566826704E1  -1.331610197032801E2  -3.575864376930871E1  -1.739947560597696E2  -3.307091850835263E1   9.359296070251953E1  -3.098913063078411E1   1.783592090351287E2  
                        
 2.446096096096096E10   -1.437376240425696E1  -4.098123693842892E1  -3.352490534739538E1  -1.660993144883283E2  -2.112516841033288E1  -3.380028341615221E1  -1.504562713637934E1   2.868918954895693  
                        -3.364772879951323E1  -1.476038575430907E2  -2.201444275443152E1   1.584889692577725E2  -1.488056601907355E1  -1.602471693083228E1  -3.577090288502152E1   1.762599882910164E2  
                        -2.099644979867218E1  -3.181056591335999E1  -1.489055513970321E1  -3.309938648139662E1  -1.277044175918324E1  -4.287737418057054E1  -3.372092449376380E1  -1.318202475895695E2  
                        -1.515139544485799E1   1.853481709187544E1  -3.590685321250751E1   1.737823502062648E2  -3.383112052765747E1  -1.158944054442246E2  -3.006145731791084E1   1.722522798550872E2  
                        
 2.453102102102102E10   -1.534736568188970E1  -9.982244132289708E1  -3.384764616160066E1  -1.659814158738022E1  -2.123446150757088E1  -7.542324283787454E1  -1.496014299180600E1   1.542270841405618E2  
                        -3.385573410029201E1   1.546754390789918  -2.142832919514029E1   1.471633869347094E2  -1.469516473429705E1   1.377177440338785E2  -3.590972706976501E1   1.639268545471472E2  
                        -2.111011327836761E1  -7.541007031954966E1  -1.485600594192369E1   1.187456678817559E2  -1.290066090996455E1  -8.374004098343023E1  -3.391578180408483E1   2.216647636675644E1  
                        -1.525245275114759E1   1.708183196452676E2  -3.614336235832440E1   1.625860143062110E2  -3.400610006225404E1   3.749670445184596E1  -2.871242405483884E1   1.557745903590381E2  
                        
 2.460108108108108E10   -1.382231786412175E1  -1.512163412097203E2  -3.398641462559237E1   1.354758935874594E2  -2.102137752867876E1  -1.199622064372568E2  -1.509373985529061E1  -5.401880284459742E1  
                        -3.418077400555399E1   1.530983262323062E2  -2.366445739583793E1   1.404913849217662E2  -1.489322415873852E1  -7.105726686838081E1  -3.595996442810927E1   1.531066437068622E2  
                        -2.099248455214844E1  -1.199746023740020E2  -1.486917114379927E1  -8.933795956106263E1  -1.370386682793911E1  -1.235981524315034E2  -3.367586479657290E1   1.743662900158343E2  
                        -1.532057523518272E1  -3.748578250022715E1  -3.607601294022154E1   1.510072892390024E2  -3.402510811610733E1  -1.696085423750524E2  -2.697146218724731E1   1.563768409453638E2  
                        
 2.467114114114114E10   -1.288223733913486E1   1.667762924000414E2  -3.419435944981308E1  -7.256092840320056E1  -2.099950919340945E1  -1.635637711507212E2  -1.497609949612310E1   9.822366925444068E1  
                        -3.451202557619715E1  -5.566963819136716E1  -2.331090188568320E1   1.312365865778915E2  -1.493879441881092E1   7.929966069400255E1  -3.617124786427599E1   1.401219503895757E2  
                        -2.115439753934466E1  -1.649632696939369E2  -1.485351229367972E1   6.108112591189713E1  -1.269889768840797E1  -1.681378565142645E2  -3.347663215406388E1  -3.635709062084641E1  
                        -1.519309313835482E1   1.144764399872088E2  -3.623922336937506E1   1.378617819694590E2  -3.339515940660928E1  -1.950347478107645E1  -3.206248558414053E1   1.346995336896372E2  
                        
 2.474120120120120E10   -1.139808756081402E1   1.296093031946200E2  -3.427801546811627E1   7.906332446234320E1  -2.103271576238322E1   1.521550755960074E2  -1.517277218737723E1  -1.092091015762841E2  
                        -3.452296416998288E1   9.583291847695504E1  -2.137588183039251E1   1.313765172822697E2  -1.467774899424091E1  -1.275980020071323E2  -3.637560424660251E1   1.291770440750528E2  
                        -2.113030642169512E1   1.507961227924007E2  -1.482459156585468E1  -1.448582847423600E2  -1.249428665781034E1   1.534619166594039E2  -3.370903684866580E1   1.124622102349154E2  
                        -1.527396519812880E1  -9.342432555921835E1  -3.632289863652822E1   1.271713155750201E2  -3.367282684949854E1   1.306045826396770E2  -2.709569090017203E1   1.245430941966329E2  
                        
 2.481126126126126E10   -1.156329806439039E1   9.462327129346602E1  -3.461657474515013E1  -1.300098513212891E2  -2.098168399957259E1   1.082896908402245E2  -1.518125700299986E1   4.265389996128204E1  
                        -3.469816033366148E1  -1.134617334107413E2  -2.379139293981967E1   1.344651589832558E2  -1.498472441554655E1   2.437736591788758E1  -3.647756741059732E1   1.178113026078075E2  
                        -2.125193940778457E1   1.072362790529443E2  -1.474178278579062E1   6.875929932466784  -1.335544689734885E1   1.008852466732695E2  -3.441141555716891E1  -9.557208533611723E1  
                        -1.528982222323291E1   5.819908132420209E1  -3.632379526096310E1   1.165750708444083E2  -3.426175904730345E1  -7.958918783171961E1  -2.516952225911586E1   1.231936462750737E2  
                        
 2.488132132132132E10   -1.237263122198050E1   5.299561533372324E1  -3.489181257172156E1   2.131933411291625E1  -2.076976070417284E1   6.304931203650234E1  -1.501736884891767E1  -1.644298524417638E2  
                        -3.505043219019227E1   3.884330842547847E1  -2.460449806921693E1   1.066687234620536E2  -1.448405749983536E1   1.768019668022847E2  -3.645330883467268E1   1.058904306378790E2  
                        -2.104122880266088E1   6.209005449508376E1  -1.486738895220819E1   1.569662717984577E2  -1.225422251861683E1   6.530803693049096E1  -3.391771096033700E1   5.586522433756576E1  
                        -1.510866637867780E1  -1.498641795565648E2  -3.649684376769099E1   1.039691578307470E2  -3.374784168717850E1   7.252712679925133E1  -2.626935946293809E1   1.159591336206244E2  
                        
 2.495138138138138E10   -1.261525561633417E1   1.611383160056424E1  -3.482032699187896E1   1.732141083624806E2  -2.071626867589330E1   1.831649732943274E1  -1.520651803524270E1  -1.289861100361953E1  
                        -3.503504636789375E1  -1.698648750794184E2  -2.290466203832122E1   1.032757750085836E2  -1.491987779341096E1  -3.228887041970874E1  -3.682904891435410E1   9.501947356469943E1  
                        -2.125743103648096E1   1.664273933698844E1  -1.501794183364413E1  -5.055873875917969E1  -1.250336460219920E1   2.121645738714550E1  -3.430354260050198E1  -1.581183512607739E2  
                        -1.528834196792558E1   1.771434426256003  -3.678096937374616E1   9.354802321302992E1  -3.444874362403762E1  -1.417797015796004E2  -2.376392154599152E1   1.154174365222500E2  
                        
 2.502144144144144E10   -1.329710042907630E1  -3.449055765986793E1  -3.504252678102188E1  -3.758843409891730E1  -2.117183908202658E1  -2.622875643961855E1  -1.511192749568019E1   1.392050346372586E2  
                        -3.523023802720393E1  -1.954349509145617E1  -2.349666429525933E1   1.158814130880191E2  -1.485822218024205E1   1.201039884085574E2  -3.654841057467575E1   8.434251210552024E1  
                        -2.132653821381953E1  -2.546611516033544E1  -1.500233159444908E1   1.020378279295484E2  -1.247636476734764E1  -2.808599025544211E1  -3.550577668410725E1  -2.773314762362418  
                        -1.540240724235087E1   1.542484564280255E2  -3.659182241237860E1   8.270931878593986E1  -3.568824602055466E1   1.348953946078426E1  -2.355603067403475E1   1.081759773351234E2  
                        
 2.509150150150150E10   -1.265969425462370E1  -7.898401961301235E1  -3.562667804060519E1   1.151321242586340E2  -2.089043019837462E1  -7.069160334808619E1  -1.504659417515658E1  -6.969858369584716E1  
                        -3.579017990065957E1   1.338676077681204E2  -2.677617170328210E1   9.051094651526402E1  -1.480007365533592E1  -9.036602895986009E1  -3.650229628182704E1   7.211124184184435E1  
                        -2.103547858871584E1  -7.061700899546528E1  -1.495486380335058E1  -1.082882885974269E2  -1.274762089941835E1  -5.603747866794006E1  -3.456009998831047E1   1.529852429944634E2  
                        -1.518902027541257E1  -5.357161689497141E1  -3.657471951862024E1   7.042123717933676E1  -3.470670481190507E1   1.689276118491931E2  -2.617385295221529E1   1.032290078526135E2  
                        
 2.516156156156156E10   -1.310884076111322E1  -1.157006400710709E2  -3.548222771170491E1  -9.180915628782785E1  -2.143532310038203E1  -1.154731220560359E2  -1.507606703025502E1   8.132229338052647E1  
                        -3.545360319923651E1  -7.175509004159250E1  -2.409837366758695E1   8.031024997171198E1  -1.519669312207669E1   6.636111744305913E1  -3.679476044181875E1   6.089088703940596E1  
                        -2.128389164018213E1  -1.160077808361202E2  -1.507432408079389E1   4.533448490402294E1  -1.253812586621376E1  -1.084277474182559E2  -3.468727880977750E1  -6.276370210809057E1  
                        -1.527114064798543E1   9.781357261857252E1  -3.679644915985799E1   5.953835599174391E1  -3.499573703240517E1  -4.606699181333269E1  -2.489699412250689E1   9.264712148388436E1  
                        
 2.523162162162162E10   -1.278166533527813E1  -1.613885151165786E2  -3.554730275466429E1   5.575680002748839E1  -2.129640768343671E1  -1.555217805929468E2  -1.516367141615376E1  -1.274344914950342E2  
                        -3.555293714914819E1   7.650590269623073E1  -2.431528114281335E1   9.869710490782843E1  -1.493693195823508E1  -1.418031158312969E2  -3.673275302622393E1   5.020468131355948E1  
                        -2.140569175184209E1  -1.585833957417071E2  -1.496435145477100E1  -1.622782433440739E2  -1.263139742085693E1  -1.471748378083681E2  -3.591532506098558E1   9.159259683854293E1  
                        -1.534866427152177E1  -1.092252924821080E2  -3.675901373193063E1   4.763129072679976E1  -3.587874880616944E1   1.105467562112013E2  -2.517929695105247E1   8.867206109907652E1  
                        
 2.530168168168168E10   -1.332903486913573E1   1.559193450345985E2  -3.626564193907851E1  -1.523251451957320E2  -2.120767344042022E1   1.558276235735091E2  -1.504436642328207E1   2.495030077186620E1  
                        -3.615521355153194E1  -1.321227568697397E2  -2.862833634139678E1   5.789625770879085E1  -1.466083531923857E1   7.773137976702651  -3.671967502511762E1   3.793326506529272E1  
                        -2.119365333022893E1   1.570140987179631E2  -1.493955643351621E1  -1.213995777354364E1  -1.299909541829720E1   1.777855437289039E2  -3.522100698477919E1  -1.138723879340627E2  
                        -1.528092477958050E1   4.323818067006383E1  -3.674583369103831E1   3.509229350327829E1  -3.495880395500529E1  -9.721316837808621E1  -2.382937147028554E1   7.742856822488130E1  
                        
 2.537174174174174E10   -1.337372459089929E1   1.120323963893988E2  -3.631193344638795E1   3.856517902906496  -2.100028138250230E1   1.119299694432044E2  -1.513736470254224E1   1.768537507764727E2  
                        -3.619959556078102E1   2.291825298942164E1  -2.476637345999949E1   4.143916841902629E1  -1.481727249691926E1   1.609700023950626E2  -3.692748318597590E1   2.724099002576141E1  
                        -2.119944080722574E1   1.127249126850163E2  -1.495944784611181E1   1.408463690855849E2  -1.267401413584350E1   1.283044100344097E2  -3.519607428797951E1   3.223089042696210E1  
                        -1.523054669497978E1  -1.646605814449150E2  -3.683051514855261E1   2.418075434658157E1  -3.516181763438190E1   4.890387756955014E1  -2.413216150697826E1   7.075064122864144E1  
                        
 2.544180180180180E10   -1.275087155716453E1   7.245764801741717E1  -3.632727244893790E1   1.540559553487706E2  -2.066689395146764E1   6.883441408767730E1  -1.516792617683226E1  -3.164415714719245E1  
                        -3.630356585331214E1   1.733751675432478E2  -2.944878290853683E1   5.867771615601230E1  -1.464248746083181E1  -4.974922786210217E1  -3.690968549720887E1   1.541584685872786E1  
                        -2.116151583010441E1   6.938422307764468E1  -1.493997626154455E1  -6.719385842224554E1  -1.353760710022561E1   8.643386395958750E1  -3.614334852558668E1  -1.757611163841697E2  
                        -1.510891222325017E1  -1.371307005759695E1  -3.693392098129890E1   1.389855301666756E1  -3.605114414316782E1  -1.600678108267584E2  -2.637421631666509E1   6.570421030254175E1  
                        
 2.551186186186186E10   -1.296459912908351E1   3.093536197657883E1  -3.647652019781712E1  -5.431437137128492E1  -2.072052654959191E1   2.117370010488552E1  -1.515697308719723E1   1.215757612917622E2  
                        -3.633858122781548E1  -3.704364132564093E1  -2.910353807828341E1   4.373987099894843E1  -1.472038573952927E1   1.029711809012561E2  -3.698725684970916E1   4.936741050557722  
                        -2.111095465451245E1   2.422374710197666E1  -1.499648473264098E1   8.498254111280400E1  -1.428039169466449E1   4.422321226445569E1  -3.637025732851037E1  -1.998079021710622E1  
                        -1.520248344381077E1   1.386582092947838E2  -3.685027193769195E1   3.168366898683206  -3.650958263067669E1  -7.294589582742253  -2.383525379531153E1   5.254696971125230E1  
                        
 2.558192192192192E10   -1.373432481052592E1  -7.838366058626433  -3.702912497978513E1   9.981041370472758E1  -2.101503822089743E1  -2.119416548923572E1  -1.508529766731419E1  -8.601265317176313E1  
                        -3.712332309528195E1   1.168756558733839E2  -2.758157841523343E1   4.418326662109487E1  -1.478587376273520E1  -1.048706489354321E2  -3.669437267427502E1  -7.312329684355486  
                        -2.095562501859756E1  -2.052696683360327E1  -1.488623928896834E1  -1.240270050281237E2  -1.376238669620368E1  -4.459376734898000  -3.621760134561358E1   1.305443513365943E2  
                        -1.512012954124553E1  -6.992514891031132E1  -3.687177070163941E1  -9.083346671974985  -3.614548987770662E1   1.451604188369095E2  -2.598247469965209E1   5.680876605701571E1  
                        
 2.565198198198198E10   -1.398904652751693E1  -4.893190276916602E1  -3.660802042119098E1  -1.062776088579077E2  -2.095780742712754E1  -6.549343349042202E1  -1.512989206079270E1   6.456915531045759E1  
                        -3.673724267493078E1  -8.936181981705131E1  -3.123018512654882E1   1.900472108501390E1  -1.488310911060827E1   4.438449622464059E1  -3.691536975350558E1  -1.950316568769469E1  
                        -2.103358796115521E1  -6.607844593597525E1  -1.486136436775161E1   2.834774811356401E1  -1.379816000873145E1  -4.487295367861042E1  -3.680878179005983E1  -8.021643077231920E1  
                        -1.526603604474709E1   8.095712981026180E1  -3.690306689200276E1  -2.082824936437465E1  -3.666390620683283E1  -6.691517475628967E1  -3.050046824829370E1   4.111475131732752E1  
                        
 2.572204204204204E10   -1.423322853578979E1  -9.297609806330520E1  -3.676785169260688E1   4.212307583060660E1  -2.105758773112112E1  -1.090769654000637E2  -1.509633071554315E1  -1.429268380683924E2  
                        -3.699322107530664E1   5.995704076015426E1  -2.838894441075268E1   6.620912686690498  -1.490902483606469E1  -1.623713233105796E2  -3.686380492611528E1  -3.050552368794369E1  
                        -2.116735816094824E1  -1.094529984858629E2  -1.482341297363999E1  -1.799776816579453E2  -1.426929835555745E1  -8.659697345330879E1  -3.742642521400620E1   7.260969436637245E1  
                        -1.534110068872339E1  -1.268103641279533E2  -3.684700669478642E1  -3.150544139895595E1  -3.768918136865533E1   8.999785503181656E1  -2.609444017236506E1   1.225062130162006E1  
                        
 2.579210210210210E10   -1.466059420542689E1  -1.394507315623001E2  -3.762076926031067E1  -1.653673127084620E2  -2.081726416925106E1  -1.530306458158686E2  -1.506552128075288E1   9.054165152539246  
                        -3.775040879461999E1  -1.472966786231211E2  -3.158424331165451E1   2.892047643299630E1  -1.482258788427627E1  -1.053253005602233E1  -3.676685541558923E1  -4.209031722614143E1  
                        -2.097709522066431E1  -1.539027315524558E2  -1.491641448953718E1  -2.854741285801280E1  -1.446107505914487E1  -1.203912857196711E2  -3.754382559878854E1  -1.329544751926019E2  
                        -1.522636445450750E1   2.559160163956511E1  -3.666440374639153E1  -4.303559058224292E1  -3.742204351485817E1  -1.165980939226225E2  -2.650032259641824E1   2.517159494917542E1  
                        
 2.586216216216216E10   -1.396296761547696E1  -1.764443139156605E2  -3.771886235814794E1  -1.012974509204814E1  -2.066677373019274E1   1.615737227006019E2  -1.510111802558240E1   1.615082800204490E2  
                        -3.783663735726806E1   6.807810052157833  -3.752411446558254E1  -1.783099682559898E1  -1.512898688057214E1   1.410101761975739E2  -3.693451237527432E1  -5.427515153129370E1  
                        -2.090891894570840E1   1.606039318300676E2  -1.486440553410398E1   1.229736703142443E2  -1.480365636579863E1  -1.566820474045603E2  -3.710406737016221E1   1.744412130338096E1  
                        -1.521057883055305E1   1.773448441010343E2  -3.690146552830102E1  -5.525011901127630E1  -3.730391481139623E1   3.483106587454399E1  -2.892765787246064E1   2.695675998040109E1  
                        
 2.593222222222222E10   -1.401910596882958E1   1.460639171095822E2  -3.777183744233975E1   1.421934432278747E2  -2.063870617126521E1   1.180023034008258E2  -1.513149209742110E1  -4.749125008773302E1  
                        -3.773283163063196E1   1.588077806690955E2  -2.832242447862780E1  -1.104490374806987E1  -1.468609355282398E1  -6.607549123630668E1  -3.694126547196282E1  -6.369404838951533E1  
                        -2.104718819672500E1   1.170129196630026E2  -1.485589623483871E1  -8.421699825548461E1  -1.603502638160980E1   1.525216150106940E2  -3.839961977816333E1   1.660677360174874E2  
                        -1.522304518941999E1  -3.060907800838976E1  -3.696990056523890E1  -6.575442911325659E1  -3.832101566982059E1  -1.765703043472608E2  -2.860452326716615E1   9.286886609443732  
                        
 2.600228228228228E10   -1.473910660298938E1   1.034126430698215E2  -3.835142427307131E1  -6.597844177113041E1  -2.038792043797829E1   7.424421858244088E1  -1.506795878818374E1   1.047247651103470E2  
                        -3.850469083922964E1  -4.828365987465138E1  -3.567009181077302E1   6.072171169143242E1  -1.447037648605669E1   8.544221693160957E1  -3.666288006807140E1  -7.565545785915251E1  
                        -2.062420383029186E1   7.330560068766503E1  -1.475674582373895E1   6.701962242002618E1  -1.703231970565441E1   1.262127841062836E2  -3.899016606672232E1  -2.971559285105622E1  
                        -1.514150257171580E1   1.213309325143757E2  -3.669011075787621E1  -7.692538432003575E1  -3.852881243392250E1  -1.388965449876735E1  -2.830041556031226E1   7.183761783685296  
                        
 2.607234234234234E10   -1.607724248369286E1   6.476339565458433E1  -3.832963448324227E1   9.215626968669392E1  -2.053062129941856E1   2.710776053595014E1  -1.506434785079549E1  -1.033988114138579E2  
                        -3.846844264085128E1   1.103853482992448E2  -3.859681821350854E1   8.075062710245432E1  -1.457301074598360E1  -1.241361498586506E2  -3.681704616928317E1  -8.807601138137123E1  
                        -2.056513415452757E1   2.734346821927943E1  -1.478692288151721E1  -1.419040561495646E2  -1.751320288751115E1   7.762885151764478E1  -3.806176616745579E1   1.201602840911029E2  
                        -1.500263019752768E1  -8.763697148943255E1  -3.676870400156820E1  -9.013795832533988E1  -3.746710238330977E1   1.342036405188629E2  -3.355933646872075E1   2.991843945452086  
                        
 2.614240240240240E10   -1.568258903527889E1   1.321752526686162E1  -3.792282522044700E1  -1.164282636162874E2  -2.063896452992054E1  -1.779331599030617E1  -1.501043113778669E1   4.809379988326148E1  
                        -3.818000613402736E1  -9.776981396019434E1  -3.541182156351776E1  -2.213614677505757E1  -1.492153385701468E1   2.862493099989786E1  -3.679555000877971E1  -9.856110266511875E1  
                        -2.072192446673044E1  -1.677732703061152E1  -1.483436189519630E1   1.049188322818163E1  -1.903459049779755E1   1.881359640245514E1  -3.934778144364288E1  -9.535584891510621E1  
                        -1.519722933212618E1   6.407805779498000E1  -3.675216477627400E1  -1.005951902466685E2  -3.932573933112757E1  -8.021097927579639E1  -3.714829032157494E1  -3.010717643973765E1  
                        
 2.621246246246246E10   -1.518121293498807E1  -3.144634021989277E1  -3.798743102622181E1   3.444773631302424E1  -2.034966005748377E1  -6.251965057886033E1  -1.505511242134237E1  -1.603820461276748E2  
                        -3.834944515474601E1   5.344338649144905E1  -2.998406998909057E1   3.214380368611325E1  -1.458758521044923E1   1.789945020093544E2  -3.684142016295727E1  -1.107021343418331E2  
                        -2.060672513824339E1  -6.074466985319000E1  -1.469614824163423E1   1.620673088710475E2  -2.059517456667120E1  -1.079507018248533E1  -3.979748470263788E1   6.965807958281773E1  
                        -1.516088432987715E1  -1.434498931914862E2  -3.665471105123918E1  -1.125706119871272E2  -3.980382162817826E1   8.706477358423433E1  -3.666469374920139E1  -5.729238512169339E1  
                        
 2.628252252252252E10   -1.584951519661865E1  -7.156467907655998E1  -3.857591605665441E1  -1.720661174802104E2  -2.061457075677195E1  -1.074465290176080E2  -1.505546470184491E1  -9.324960269242650  
                        -3.897052155237283E1  -1.512733824420485E2  -3.065502320951070E1   8.864651397587068E1  -1.499030328397977E1  -2.926639091549851E1  -3.662813936962152E1  -1.227317844497684E2  
                        -2.059579297003578E1  -1.052442197653240E2  -1.484370015692031E1  -4.659200261212630E1  -1.841742704013107E1  -5.906329435902677E1  -3.848705063394973E1  -1.415329021672701E2  
                        -1.515551072241588E1   8.365554370936296  -3.675452247662540E1  -1.243680731280503E2  -3.878313084037634E1  -1.255516869151507E2  -3.332837028105304E1  -1.105236162529194E1  
                        
 2.635258258258258E10   -1.553684118631181E1  -9.882948184772913E1  -3.818849956368053E1  -1.596253727108059E1  -2.051111924242922E1  -1.517194235279529E2  -1.519126475873304E1   1.421022281473607E2  
                        -3.842957074133069E1   5.071608961442230  -3.518424321084105E1   1.141900026276534E1  -1.479099361980172E1   1.221301035325594E2  -3.676249552442754E1  -1.344134197620502E2  
                        -2.065103714559654E1  -1.497733788173957E2  -1.479806698861786E1   1.053019105844903E2  -1.992054961151373E1  -9.949248377105731E1  -3.998527442902042E1   7.852594549384516  
                        -1.525858884642435E1   1.605305134062494E2  -3.673486826965225E1  -1.364195818865381E2  -4.021546172138933E1   2.416571968005645E1  -3.526171778149332E1   6.010637611746618  
                        
 2.642264264264264E10   -1.619113659347234E1  -1.394196199978970E2  -3.793257900909508E1   1.326314885117380E2  -2.061873461093764E1   1.637738740487243E2  -1.509493159358531E1  -6.603065763167818E1  
                        -3.806326602159005E1   1.545399098025837E2  -2.703976642852043E1   1.920707964470710E1  -1.482953057992760E1  -8.524056799964333E1  -3.670974780554622E1  -1.461613337405455E2  
                        -2.056431355390154E1   1.660415789912949E2  -1.475008721394247E1  -1.031616661376221E2  -2.046795372485957E1  -1.257332905029094E2  -4.027317766193490E1   1.694093300861635E2  
                        -1.536172036706051E1  -4.722021798464880E1  -3.655731484629835E1  -1.469946184847984E2  -4.041707020541035E1  -1.747515389609569E2  -4.832657345990698E1  -9.608638597233902E1  
                        
 2.649270270270270E10   -1.879158355017962E1  -1.795221276289443E2  -3.892495072906132E1  -7.195570674386211E1  -2.040326093097687E1   1.185962492949640E2  -1.508802612684783E1   8.493256666769455E1  
                        -3.902230341901354E1  -5.114209679627178E1  -3.029513832327183E1   2.330688426760493E1  -1.466624035419497E1   6.547679504028696E1  -3.669637199659555E1  -1.580824977010275E2  
                        -2.052246596569020E1   1.221249097324539E2  -1.490053464723637E1   4.855407708625612E1  -2.125336272921137E1  -1.637504643415202E2  -4.029069208416147E1  -3.406250554377088E1  
                        -1.524125611398588E1   1.049347116683702E2  -3.667211692131058E1  -1.579745281119222E2  -4.025259860815735E1  -1.718683607778731E1  -5.406282410224574E1   5.781866274104315E1  
                        
 2.656276276276276E10   -1.925625326813013E1   1.450113797257373E2  -3.857590668209085E1   8.932915674043056E1  -2.021787965018235E1   7.342045756352987E1  -1.510357165809866E1  -1.231431594876577E2  
                        -3.859739473218575E1   1.092068592661830E2  -3.174203598451467E1  -1.034780891818752  -1.485418740099108E1  -1.426749213055872E2  -3.663218599724784E1  -1.699078638458415E2  
                        -2.047448705645678E1   7.737887593918056E1  -1.479317888918242E1  -1.599766425246095E2  -2.197651857008805E1   1.682540353877922E2  -4.004878645753801E1   1.190769294243977E2  
                        -1.524890933642342E1  -1.029745700256416E2  -3.649434211725750E1  -1.703226832726676E2  -3.976647690465519E1   1.372776532195575E2  -3.734257447197838E1   4.730366867079196E1  
                        
 2.663282282282282E10   -1.922074389101748E1   9.104532514917891E1  -3.738398980613422E1  -1.226745744943096E2  -2.040724668752365E1   2.929133019541945E1  -1.513897957424815E1   2.735938952237906E1  
                        -3.747109276029783E1  -1.024115778258075E2  -3.180354761689105E1   6.861077849341293  -1.494275418630005E1   8.225018120968782  -3.664501122960898E1   1.782154433948595E2  
                        -2.035748843537803E1   3.130487479412289E1  -1.482609176332537E1  -8.600830103222377  -2.669699321298561E1   1.324770028192308E2  -4.017362213918007E1  -8.790857194954045E1  
                        -1.508258344226707E1   4.921014577409070E1  -3.650428015074360E1   1.781558180115419E2  -3.974614366030324E1  -6.687942426556930E1  -3.636120889971697E1   1.472575545410153E2  
                        
 2.670288288288288E10   -2.015287442038363E1   4.156749975142929E1  -3.805289379154036E1   2.912712837796470E1  -2.030605268347058E1  -1.529449839790959E1  -1.518379357657428E1   1.794589424712002E2  
                        -3.805844153931651E1   4.946838110070517E1  -3.576980745850290E1  -4.271526244472934E1  -1.467030575042923E1   1.603024968757691E2  -3.652133169845020E1   1.671832331895965E2  
                        -2.040576309414130E1  -1.287615729548776E1  -1.475772152430877E1   1.420274280383749E2  -2.755328805622922E1   9.349473839440594E1  -4.011821816383043E1   7.070882903342394E1  
                        -1.510093235001427E1  -1.599528893650730E2  -3.651475193345085E1   1.667886439754982E2  -3.980389620470499E1   8.704873790785193E1  -5.283755486803592E1  -1.771742643124506E1  
                        
 2.677294294294294E10   -2.100131357022799E1   1.672752784608690E1  -3.776898076263699E1  -1.727319886958501E2  -2.025516253448069E1  -6.055530827186114E1  -1.507759663989287E1  -2.869763767493314E1  
                        -3.821888560309732E1  -1.534510582236552E2  -3.127861076497775E1  -2.638864073840515E-1  -1.478342146681305E1  -4.718045752565864E1  -3.645725044892372E1   1.544867820604854E2  
                        -2.029521085284448E1  -5.774242420881116E1  -1.471988610242419E1  -6.594948773729213E1  -2.608936061588775E1   6.130800070967113E1  -3.925725472521299E1  -1.323292002641790E2  
                        -1.519516187189621E1  -8.364935998020650  -3.645281462020699E1   1.539680654865898E2  -3.916097797400710E1  -1.160374063317883E2  -3.874405034530473E1  -1.217915059274124E1  
                        
 2.684300300300300E10   -2.011196586751132E1  -2.311221442789705E1  -3.690070264671979E1  -2.321082973196931E1  -1.996463096963229E1  -1.057009698427942E2  -1.510233246208778E1   1.227147901645320E2  
                        -3.708630613045234E1  -1.650167338377065  -3.154318954304462E1   3.887070316243122E1  -1.461660595183822E1   1.032288209780740E2  -3.657630143659077E1   1.423558962582850E2  
                        -2.012648190365672E1  -1.033010578570676E2  -1.480684373604615E1   8.585203381995174E1  -2.704048660793594E1  -2.236265807468948E1  -3.881637077015483E1   1.388629789562171E1  
                        -1.517297253117475E1   1.433457070522051E2  -3.652427471205310E1   1.421295814162914E2  -3.887134308094863E1   3.169081501178663E1  -3.579267254603874E1   2.488396891457986E1  
                        
 2.691306306306306E10   -2.279236749144769E1  -6.787880966174913E1  -3.712483080035392E1   1.263489640005767E2  -2.021180722659047E1  -1.491930786347024E2  -1.518962527719013E1  -8.507100432684297E1  
                        -3.733889461803447E1   1.464477939558914E2  -3.705205444153717E1  -5.056821217780980E1  -1.475309611581904E1  -1.056190531136834E2  -3.657173877067987E1   1.310926345063116E2  
                        -2.026820931680051E1  -1.480264086290010E2  -1.482381375922890E1  -1.227894890586653E2  -2.747646376422193E1  -2.005147132461081E1  -3.968490439445351E1   1.751255367001871E2  
                        -1.517061425161880E1  -6.523288083685509E1  -3.651531505876204E1   1.307780091516216E2  -3.967928608146658E1  -1.693425362305705E2  -3.848309552534882E1   2.013101632808477E1  
                        
 2.698312312312312E10   -2.452988150548380E1  -1.017510164067766E2  -3.753466608259313E1  -7.686822524198439E1  -2.007246150031635E1   1.646930851155393E2  -1.515882543131636E1   6.677485390485798E1  
                        -3.770575438163429E1  -5.598584483254646E1  -2.887328344198937E1  -3.030337248586425E1  -1.481190801218878E1   4.667114891673896E1  -3.648714801534468E1   1.191635642478367E2  
                        -2.034370399310837E1   1.678727936760293E2  -1.484202700086714E1   2.862678958398124E1  -2.433241365689223E1  -5.413920110227480E1  -3.793282890924980E1  -2.730100017552646E1  
                        -1.527789396358385E1   8.660926398932342E1  -3.645207272768561E1   1.187488264147538E2  -3.770593158968800E1  -9.788744000278831  -3.663638659531864E1  -1.847299442498567E1  
                        
 2.705318318318318E10   -2.230198611638481E1  -1.388918127784852E2  -3.643127791298208E1   7.780500514030649E1  -1.978565280382697E1   1.204287799375392E2  -1.511708535480747E1  -1.414768504983380E2  
                        -3.660756577583052E1   9.783076553836312E1  -3.279870725457936E1   4.648313375075939  -1.500839091400736E1  -1.615731592391866E2  -3.647192580751260E1   1.077141076220938E2  
                        -2.014759078449993E1   1.225854310592728E2  -1.490473196428303E1  -1.797843434870854E2  -2.509326532258285E1  -1.063030014753803E2  -3.771133401555519E1   1.149468165800689E2  
                        -1.526016387424072E1  -1.216188096136324E2  -3.638706659533154E1   1.066270777443808E2  -3.741530315171866E1   1.326613641120742E2  -4.081803283562589E1   3.361558823299863  
                        
 2.712324324324324E10   -2.401688008204202E1   1.759094402238845E2  -3.608518312657716E1  -1.330891932882263E2  -2.019020940847543E1   7.497989925713114E1  -1.518316324421448E1   1.013376191285099E1  
                        -3.638183648019976E1  -1.138778122097614E2  -3.497334021765821E1  -6.777015441400161E1  -1.495466820752614E1  -1.025103492969725E1  -3.644919553302413E1   9.595885375467742E1  
                        -2.028413671078787E1   7.731679121497191E1  -1.494948771560960E1  -2.835607624301502E1  -2.270313885946319E1  -9.335262093768570E1  -3.853116320728680E1  -8.590493670406021E1  
                        -1.533990792257727E1   2.965678579113860E1  -3.643131008547924E1   9.532719479934204E1  -3.820817223907780E1  -7.063923310705472E1  -3.947232734969663E1   3.342897121465214E1  
                        
 2.719330330330330E10   -2.656129042837525E1   1.436229700240335E2  -3.637680641216009E1   1.824185819225927E1  -1.993052626529321E1   3.159588535305518E1  -1.506627185633526E1   1.617334468243932E2  
                        -3.671452810915365E1   3.713169447259843E1  -3.081904917873576E1  -5.807510694462521E1  -1.508075910907561E1   1.407453091314836E2  -3.652965775586881E1   8.516149531721239E1  
                        -2.021387877088350E1   3.353807389444129E1  -1.497983585792621E1   1.228851436603764E2  -2.487465060064189E1  -1.423457969964686E2  -3.671011996215778E1   6.854213142295383E1  
                        -1.528469484711132E1  -1.783543624661508E2  -3.632890102379566E1   8.328575370011181E1  -3.674769206648793E1   8.738494256915591E1  -4.671483475653989E1   1.111214957182331E1  
                        
 2.726336336336336E10   -2.458598545740639E1   1.313974683150672E2  -3.575561375547188E1   1.744396057230751E2  -2.001560374352775E1  -1.536826790798795E1  -1.515539568786629E1  -4.664613296191321E1  
                        -3.593645900543987E1  -1.650233557812608E2  -3.137034336950183E1  -2.692087324491299E1  -1.514272386189783E1  -6.740843502196769E1  -3.642916259555101E1   7.266444991800796E1  
                        -2.011169522302921E1  -1.220246021533939E1  -1.499033276753153E1  -8.532475919773788E1  -2.847522867756268E1  -1.730684235080971E2  -3.648874165930485E1  -1.463641976919624E2  
                        -1.535228156844817E1  -2.719316513419442E1  -3.630574054501332E1   7.133245256189613E1  -3.636582316053111E1  -1.293959183279751E2  -3.498254896888710E1  -4.741685825268345E1  
                        
 2.733342342342342E10   -2.714837677266474E1   8.146931995382676E1  -3.498626006185815E1  -3.783576365369023E1  -1.999222384101504E1  -5.799596312845286E1  -1.530800076079380E1   1.054905687574977E2  
                        -3.542088383116938E1  -1.697181644523037E1  -3.949830285319455E1  -9.116284056592706E1  -1.513857563816004E1   8.511866060882379E1  -3.622362844862572E1   6.131220553350210E1  
                        -2.019930188111156E1  -5.667604117431177E1  -1.495443400583385E1   6.584646640238127E1  -2.549984693991004E1   1.638025311121906E2  -3.682475863797157E1   1.058366826101791E1  
                        -1.530456805509393E1   1.243807613681410E2  -3.626705879407306E1   5.807031756898669E1  -3.710282357406639E1   3.046934022012951E1  -3.420988170635158E1  -1.786618679380610E1  
                        
 2.740348348348348E10   -3.082515904390480E1   5.655841900183131E1  -3.525761754600269E1   1.108915470734690E2  -1.975698238751225E1  -1.045773116939134E2  -1.523432671059448E1  -1.034526473227533E2  
                        -3.558522005423789E1   1.344088321062272E2  -3.166901963234920E1  -4.981148753990400E1  -1.495575250578239E1  -1.245016761740206E2  -3.630943525648493E1   4.896804088227371E1  
                        -1.998754576091658E1  -1.016488833608654E2  -1.508183694081240E1  -1.421610104201614E2  -2.767637838264409E1   9.754523301812829E1  -3.588509553432104E1   1.643467748957255E2  
                        -1.526150095736154E1  -8.365528166974941E1  -3.621995357099745E1   4.765837037650425E1  -3.536316454892967E1  -1.778095119138995E2  -3.892104901325832E1  -1.724883899981956E1  
                        
 2.747354354354354E10   -2.747544045427359E1   3.115363881272813E1  -3.528349955411034E1  -9.517899608829640E1  -1.981302883967476E1  -1.503598064063894E2  -1.527101364355290E1   4.840519134621516E1  
                        -3.543732875646895E1  -7.129729532558987E1  -2.831853014625581E1  -3.022598878935273E1  -1.494779314472446E1   2.760781231601104E1  -3.615545301868178E1   3.729247210988238E1  
                        -2.007972607382981E1  -1.460688283582172E2  -1.510505645088288E1   9.301868280749101  -2.891906685997276E1   6.616148091565633E1  -3.539728904491417E1  -4.726321780519069E1  
                        -1.525176838617370E1   6.799458712621467E1  -3.628047445371565E1   3.452041307442147E1  -3.532661125769742E1  -2.916860064379275E1  -3.659790916823346E1  -5.698685459287066E1  
                        
 2.754360360360360E10   -2.830029307785224E1  -1.301469954238354E1  -3.450010641075532E1   5.741655670192650E1  -1.978586525481174E1   1.643947150852302E2  -1.532636266790615E1  -1.610664520912353E2  
                        -3.452366672745509E1   8.173877723682993E1  -3.090495656158322E1  -7.420879984032662E1  -1.515271477331186E1   1.793793344074455E2  -3.613937514471908E1   2.506030043665887E1  
                        -1.986710110846890E1   1.684945610493280E2  -1.507180326120244E1   1.612036255866531E2  -2.812860938757097E1   1.806624762396594E1  -3.506638213535341E1   1.038869575385858E2  
                        -1.539059691835850E1  -1.392766118637797E2  -3.607531980125781E1   2.278752130231593E1  -3.472754278053530E1   1.201784233600938E2  -3.389959552807665E1  -3.199006776755605E1  
                        
 2.761366366366366E10   -3.062807361007656E1  -5.072828641354453  -3.439476804149020E1  -1.551816595607382E2  -1.972261332187021E1   1.182001936449185E2  -1.536552853648807E1  -9.394605593568491  
                        -3.441752732948616E1  -1.325109883378848E2  -2.990624460113947E1  -7.035850711747393E1  -1.493566489267985E1  -2.890506107833427E1  -3.622366408819946E1   1.223651608200629E1  
                        -1.989950205941607E1   1.227982895042287E2  -1.518047446333974E1  -4.721576025835869E1  -2.541438046505644E1  -1.941178148432025E1  -3.489746702690322E1  -1.057274094595965E2  
                        -1.536379872821257E1   1.248430374296158E1  -3.608472932623986E1   1.113431522965910E1  -3.458933379987663E1  -8.734096914365222E1  -3.736652979403883E1   9.007332477275782  
                        
 2.768372372372372E10   -2.762529033423949E1  -3.141392061473534E1  -3.461689620583798E1  -1.860610591888569  -1.993383704632387E1   7.334153246589294E1  -1.535899034608893E1   1.421803434064620E2  
                        -3.477217561212135E1   2.112479759738992E1  -2.936004959752632E1  -8.938313666517472E1  -1.527466240423041E1   1.214479501375187E2  -3.608727166699989E1   1.501736648570066E-1  
                        -1.997139435773554E1   7.814862576004308E1  -1.520771784228713E1   1.042644565836567E2  -2.325682331355857E1  -6.206671717283369E1  -3.435622403820067E1   4.596859407678593E1  
                        -1.538950301957996E1   1.642374623618653E2  -3.600412646641835E1  -1.060265555293936  -3.438212681790174E1   6.336552934235624E1  -4.986281536185211E1  -3.192530921025535E1  
                        
 2.775378378378378E10   -3.009333376771840E1  -7.506328937312362E1  -3.377377973392341E1   1.499784035148432E2  -1.963092478816672E1   2.927202872907352E1  -1.543740592224398E1  -6.712716476413527E1  
                        -3.380486731086138E1   1.729286610875256E2  -2.948854397100297E1  -1.282663082111886E2  -1.534541881687440E1  -8.552306385796337E1  -3.605482914149233E1  -1.277605549137456E1  
                        -1.982164244203469E1   3.420767439692979E1  -1.516249242043125E1  -1.042703959952977E2  -2.288879851924911E1  -8.262943440390271E1  -3.383954340708363E1  -1.661020761245114E2  
                        -1.545841600957864E1  -4.433750018716552E1  -3.604489349815751E1  -1.354517025408947E1  -3.372042659869245E1  -1.479871821185093E2  -3.359800710120627E1  -5.455436466490685E1  
                        
 2.782384384384384E10   -3.169038880436005E1  -9.980899355978609E1  -3.355898971613226E1  -6.092590445967745E1  -1.997702541815093E1  -1.564833933006870E1  -1.554322465978542E1   8.547713387480441E1  
                        -3.371408803065909E1  -4.001204848709494E1  -3.001751356494180E1  -9.104973260560792E1  -1.517394936803226E1   6.574787325820758E1  -3.608179271753480E1  -2.548262906608832E1  
                        -2.000175587934944E1  -1.376232386313472E1  -1.520094987621340E1   4.719827216985428E1  -2.128764124554152E1  -1.071058205658983E2  -3.432764023866081E1  -1.754116880589021E1  
                        -1.553357130145339E1   1.075233297764745E2  -3.598475526644489E1  -2.496189607154481E1  -3.446731755336605E1   8.264898592272700E-1  -3.311836815172185E1  -4.287622062415870E1  
                        
 2.789390390390390E10   -2.614606695365090E1  -1.703101619659284E2  -3.360373077865328E1   8.793256400432553E1  -1.982060182376865E1  -6.020192658321517E1  -1.544720153039613E1  -1.229510605088098E2  
                        -3.379426019114253E1   1.097349370177164E2  -3.629987830648022E1  -1.091489782730051E2  -1.521349878568701E1  -1.424647254295648E2  -3.595030840828034E1  -3.834659474294777E1  
                        -2.001476427190205E1  -5.711463805986151E1  -1.523952574818405E1  -1.613202739802838E2  -2.002310522931254E1  -1.429783522984335E2  -3.401471551824914E1   1.394832472683711E2  
                        -1.553028967481181E1  -1.012078310907921E2  -3.594775694038678E1  -3.810445210190601E1  -3.423391031210937E1   1.579771344196385E2  -3.242446732471409E1  -5.324184749510335E1  
                        
 2.796396396396396E10   -2.290694963299855E1   1.481504646197233E2  -3.357345453180058E1  -1.188150826870277E2  -1.981894127106039E1  -1.061202576722639E2  -1.547764383978866E1   2.859385749482850E1  
                        -3.375803354658004E1  -9.731133576526227E1  -2.828428012715935E1  -1.305710499811335E2  -1.532193038783917E1   7.831124874212286  -3.615283795181799E1  -5.004014714429918E1  
                        -1.987397910824544E1  -1.037779428342664E2  -1.529760184540922E1  -9.848897841082451  -2.114781034994549E1  -1.658021753289527E2  -3.325401915869150E1  -7.243378061113158E1  
                        -1.558947735684278E1   4.969597342827096E1  -3.585529388175402E1  -5.062315802442294E1  -3.337331483797575E1  -5.584998115103263E1  -4.049136928452855E1  -7.240908915272023E1  
                        
 2.803402402402402E10   -2.155813194476227E1   1.226922168795724E2  -3.306263403361844E1   3.017209517366339E1  -1.984940473077839E1  -1.510200525827951E2  -1.561487454748329E1  -1.789613023281849E2  
                        -3.321683594036710E1   5.241689008410910E1  -2.679570087489725E1  -1.157486197179975E2  -1.525765632076990E1   1.626651888780509E2  -3.602762902266788E1  -6.215139827015017E1  
                        -2.007367442923969E1  -1.482569813180458E2  -1.537868997820652E1   1.416706556368111E2  -1.906895576158555E1   1.595804625442154E2  -3.358192210200654E1   7.404236684350357E1  
                        -1.569471381713621E1  -1.583715383194185E2  -3.593649729599876E1  -6.310435914516318E1  -3.376984686414826E1   9.319852356078042E1  -3.314906724442839E1  -7.541648408748975E1  
                        
 2.810408408408408E10   -1.894786154878776E1   9.541287155529447E1  -3.309248313357657E1   1.775953483647741E2  -1.967503417075403E1   1.651292678532683E2  -1.559024574359323E1  -2.791967177416428E1  
                        -3.317306135186367E1  -1.608955362820138E2  -3.026838769244554E1  -1.425727546701379E2  -1.519141908712337E1  -4.827087777402152E1  -3.611916410469857E1  -7.442934627819065E1  
                        -1.995713435873165E1   1.665993682806285E2  -1.538277290011416E1  -6.710844556016390E1  -2.137361590463472E1   1.052898537299504E2  -3.336849411374018E1  -1.305387224849966E2  
                        -1.559109391614510E1  -5.729089710627868  -3.597489532154594E1  -7.599420519590788E1  -3.311909045124138E1  -1.112930979817693E2  -3.367094035362840E1  -4.602633117127748E1  
                        
 2.817414414414414E10   -1.852548599833458E1   5.882502689769920E1  -3.367542514233360E1  -3.065199136829999E1  -1.985501121580323E1   1.172264465419611E2  -1.575629880130441E1   1.247862771779024E2  
                        -3.367524032934008E1  -8.210090921711048  -2.668400276441756E1  -1.425801573495970E2  -1.546323551086921E1   1.051023923186896E2  -3.600750133932397E1  -8.589810240737108E1  
                        -1.995387321685001E1   1.197654024674920E2  -1.547814122315815E1   8.420740109368632E1  -2.137152285431092E1   7.958607809483614E1  -3.250132332617066E1   1.602834975362427E1  
                        -1.583283227490688E1   1.448290249432607E2  -3.610477035268001E1  -8.852637056526341E1  -3.242945994691988E1   3.505960130354907E1  -3.518576499645438E1  -3.210996862042223E1  
                        
 2.824420420420420E10   -1.928962564097054E1   2.400602938048160E1  -3.288602923808525E1   1.224678603589740E2  -1.986579341654512E1   7.338402508403080E1  -1.567963177629365E1  -8.392790591857413E1  
                        -3.289304199230213E1   1.448583633423928E2  -2.764687731628840E1  -1.239131204720615E2  -1.531808012718084E1  -1.028184607533677E2  -3.605513175588452E1  -9.921703864509016E1  
                        -2.011199609196316E1   7.578640918772821E1  -1.560303056523829E1  -1.238154195099658E2  -1.853681088219026E1   2.858817024865973E1  -3.301718335436497E1   1.625247138593331E2  
                        -1.569475878356465E1  -6.344621095120832E1  -3.608074679588523E1  -1.011485998681467E2  -3.284946744732144E1   1.797531760234852E2  -3.300705426154205E1  -8.777486169536186E1  
                        
 2.831426426426426E10   -1.890481293169468E1  -1.443021615557874E1  -3.278090702287125E1  -9.222751277949281E1  -1.956722132386792E1   2.777548882127630E1  -1.580174691723482E1   6.733425127139533E1  
                        -3.296560921535955E1  -6.926908808604486E1  -2.847058998028093E1  -1.417538380203723E2  -1.548062495563463E1   4.636307787341972E1  -3.603713696529231E1  -1.116311263121954E2  
                        -2.005098947856567E1   2.919992031469313E1  -1.550136857479867E1   2.721927901670873E1  -1.812702082822840E1  -2.719342477283727E1  -3.311064292431136E1  -4.340821965161349E1  
                        -1.567280242303257E1   8.831954066886519E1  -3.612573744953800E1  -1.141305831278664E2  -3.300008139221053E1  -2.467715263853997E1  -2.954464603962487E1  -8.730378149604633E1  
                        
 2.838432432432432E10   -1.847515275297453E1  -6.932159032418907E1  -3.322488198524547E1   5.953683266978975E1  -2.016639918845630E1  -1.978208705381396E1  -1.582522647403559E1  -1.402929109813746E2  
                        -3.316266777429006E1   8.212633797396555E1  -2.631597084952436E1  -1.405009798566900E2  -1.557549728341423E1  -1.620830651637161E2  -3.626059974817546E1  -1.235121461707208E2  
                        -2.032189499542855E1  -1.630434065451608E1  -1.564893778797516E1   1.787588746131730E2  -1.654954854270848E1  -5.732065852869874E1  -3.273028516444573E1   1.064756913815399E2  
                        -1.594662037627212E1  -1.205185281931968E2  -3.616055010454375E1  -1.263565697110879E2  -3.272881427453400E1   1.203018692186834E2  -3.067828615119428E1  -7.767158863278846E1  
                        
 2.845438438438438E10   -1.791490919847242E1  -1.136156159155646E2  -3.286318759811095E1  -1.482990981547890E2  -2.029503447726132E1  -6.397126738188310E1  -1.582489596746662E1   1.134939686214099E1  
                        -3.292624917254332E1  -1.270989966837312E2  -2.679701392459031E1  -1.387480821930300E2  -1.551539225001981E1  -9.211565622133596  -3.620758387603777E1  -1.369663791525860E2  
                        -2.049335510218035E1  -5.974607953140886E1  -1.572885865980297E1  -2.892678578072815E1  -1.535305155584807E1  -1.006133052444821E2  -3.305834133246930E1  -1.051793053427360E2  
                        -1.596370198024052E1   3.177938812797967E1  -3.624975671811688E1  -1.386406747181001E2  -3.320151392511776E1  -8.743053709254730E1  -3.744062797129386E1  -7.402551465122241E1  
                        
 2.852444444444444E10   -1.661934246562579E1  -1.537341614986084E2  -3.261254904152695E1  -9.442848815156295E-1  -2.034726918309069E1  -1.101738936843597E2  -1.585855320016067E1   1.617204944669718E2  
                        -3.285635838493855E1   2.163697202549208E1  -2.760336556589180E1  -1.524616572037933E2  -1.576967917179533E1   1.403374140718697E2  -3.639739761521123E1  -1.510899561579766E2  
                        -2.041693532058614E1  -1.055447332517190E2  -1.572880125951825E1   1.225600952848094E2  -1.447354820893429E1  -1.352687536574824E2  -3.311851934489815E1   4.704642139346989E1  
                        -1.606177908638295E1  -1.766844489759202E2  -3.631019359325995E1  -1.514071877058641E2  -3.295465167907950E1   6.290458142529302E1  -3.351504308635688E1  -7.319180550540737E1  
                        
 2.859450450450450E10   -1.580305148851914E1   1.637029925170886E2  -3.315145577284461E1   1.475699530731329E2  -2.086053815193230E1  -1.545824816248351E2  -1.603637980445469E1  -4.638192756747031E1  
                        -3.336864938720795E1   1.710961551718716E2  -2.418546120697411E1  -1.583360695584853E2  -1.596081446333484E1  -6.459369064906548E1  -3.659635762264075E1  -1.623302200646880E2  
                        -2.078459713651837E1  -1.499606618617518E2  -1.586953071894579E1  -8.491197875518758E1  -1.452128341298647E1  -1.686498425064551E2  -3.295311956810593E1  -1.642163187656772E2  
                        -1.622784655946887E1  -2.403745588823247E1  -3.651083862969627E1  -1.631406939812796E2  -3.308039690708088E1  -1.464678770074434E2  -3.087589360747318E1  -9.382723256505041E1  
                        
 2.866456456456456E10   -1.501336939585423E1   1.205250412786187E2  -3.326025200107441E1  -6.077675991580671E1  -2.070438038054196E1   1.619836964933825E2  -1.607511557573826E1   1.059324812699623E2  
                        -3.345861910800282E1  -3.742340238711906E1  -2.714430998730488E1  -1.536196778334722E2  -1.587194203691209E1   8.621345816725376E1  -3.666198046848692E1  -1.755209000384400E2  
                        -2.071851776004228E1   1.657939927459181E2  -1.585291007766714E1   6.698368830544645E1  -1.466904854621751E1   1.477044981996399E2  -3.288875602691817E1  -1.283889713800940E1  
                        -1.615221583434226E1   1.288292301860853E2  -3.647749500500941E1  -1.757962025571499E2  -3.294784000467005E1   5.795694433313823  -2.956201840052150E1  -8.969794799006721E1  
                        
 2.873462462462462E10   -1.466482111099633E1   8.233556701115624E1  -3.328514150216968E1   9.090971069467966E1  -2.054479986414408E1   1.167047488715127E2  -1.622190159267077E1  -1.027947481329174E2  
                        -3.347205314947127E1   1.137002860519451E2  -2.817486813883108E1   1.616597821026902E2  -1.614106706877645E1  -1.225825425895746E2  -3.686141328943732E1   1.726388559407777E2  
                        -2.085632392465269E1   1.201856799255040E2  -1.588834240334284E1  -1.410914179956031E2  -1.388313258489562E1   1.062245256263811E2  -3.280113686013398E1   1.368560426619000E2  
                        -1.619682067805623E1  -8.055437816089660E1  -3.668916821283748E1   1.712662004760266E2  -3.270367861212598E1   1.538187116227889E2  -3.630930621351703E1  -8.344776018270335E1  
                        
 2.880468468468468E10   -1.360661468630303E1   4.303572237965236E1  -3.330713751674069E1  -1.191161492152937E2  -2.069615629007348E1   7.105973348499377E1  -1.631626152378782E1   4.937704822432063E1  
                        -3.328521557386225E1  -9.698704072317166E1  -2.694256409633110E1   1.639514669268386E2  -1.589705530645445E1   3.046684818510033E1  -3.710014565352391E1   1.596444935285707E2  
                        -2.101229396005946E1   7.549162993119943E1  -1.597815509295682E1   1.131843833104765E1  -1.389697986776955E1   6.050298383008730E1  -3.305324374762083E1  -7.429190036967674E1  
                        -1.630565586229817E1   7.216900493041250E1  -3.698821559783132E1   1.602698609336425E2  -3.285763901672085E1  -5.683493146146535E1  -3.179661151422786E1  -1.272585406477388E2  
                        
 2.887474474474474E10   -1.339261678021446E1   1.994173342095358  -3.354659549982952E1   3.147460306959819E1  -2.083888932347515E1   2.625670707442031E1  -1.631319953818277E1  -1.585686312540120E2  
                        -3.373165180767559E1   5.261814065029123E1  -3.104751228155354E1  -1.798116642534222E2  -1.587127533348259E1   1.789973636081154E2  -3.705455462456514E1   1.488596214775000E2  
                        -2.117099475313247E1   3.058366952167648E1  -1.599962438762599E1   1.626291067078961E2  -1.385518718082710E1   1.148497000496146E1  -3.323675386593327E1   7.692182457634868E1  
                        -1.623028387972180E1  -1.364973920142174E2  -3.703536738652455E1   1.484828492677234E2  -3.293425317256128E1   9.367284018353726E1  -3.180888281269332E1  -1.280413198492468E2  
                        
 2.894480480480480E10   -1.394962504924907E1  -4.000626264786389E1  -3.349439199859241E1  -1.767003401571145E2  -2.114877494177569E1  -2.064357848921877E1  -1.626935450821454E1  -6.224497679649119  
                        -3.369349492631592E1  -1.553090034348322E2  -3.006298075885758E1   9.888656123343398E1  -1.604056857598889E1  -2.785420401015917E1  -3.738974789341950E1   1.358437438275689E2  
                        -2.119007141654601E1  -1.519872763607905E1  -1.613820814601849E1  -4.616575096494982E1  -1.301415981179797E1  -3.079629985133773E1  -3.316047632775174E1  -1.345363930426442E2  
                        -1.626096060127417E1   1.479508308400501E1  -3.712312900003173E1   1.359288771022775E2  -3.300329557797373E1  -1.182797081118225E2  -3.254016721096605E1  -1.319391025939508E2  
                        
 2.901486486486486E10   -1.386249236685330E1  -8.173456098303856E1  -3.337033353420586E1  -2.792943362395626E1  -2.142685672402806E1  -6.410746403420626E1  -1.639886136665444E1   1.450517594166561E2  
                        -3.374429095506543E1  -5.614713274783317  -2.816762059653379E1   1.411079112422023E2  -1.625337355446150E1   1.227800875345167E2  -3.750442269231044E1   1.243799425741868E2  
                        -2.153769044297068E1  -6.041623328674382E1  -1.616592486008706E1   1.061080985279456E2  -1.230895565501110E1  -7.706672440660127E1  -3.375167740434669E1   1.465206373833565E1  
                        -1.638876544439361E1   1.663365207636629E2  -3.736480067031911E1   1.243117212677479E2  -3.365155605669565E1   3.060217821241512E1  -3.258361248950648E1  -1.500728863623475E2  
                        
 2.908492492492492E10   -1.416860181840391E1  -1.306484553129324E2  -3.372047869755189E1   1.218662036353405E2  -2.167121426713604E1  -1.090420000672212E2  -1.638672987026559E1  -6.224318938887291E1  
                        -3.399599695865916E1   1.436971403191912E2  -3.537455504996050E1   1.133735811340105E2  -1.636967116088020E1  -8.636436315746957E1  -3.756296831019692E1   1.125018891113762E2  
                        -2.177934689729943E1  -1.048096768137613E2  -1.618148913980583E1  -1.025185039952268E2  -1.180163822221179E1  -1.167965521854201E2  -3.379815140112157E1   1.687459194771025E2  
                        -1.666684345773554E1  -4.130190363291532E1  -3.744698021279471E1   1.123268145425378E2  -3.371445465942043E1  -1.741167896242713E2  -5.369925620293369E1  -7.670794010534364E1  
                        
 2.915498498498498E10   -1.328112739961014E1  -1.772736367898689E2  -3.398641226390694E1  -8.688683023562975E1  -2.186950512818709E1  -1.516950707948591E2  -1.640884677797499E1   8.991803477779223E1  
                        -3.444476222352903E1  -6.527343246403896E1  -2.979961095374843E1   7.500935632119445E1  -1.660227683064164E1   7.032191558384373E1  -3.774247640099118E1   1.010531103080167E2  
                        -2.207564076578768E1  -1.483565991305747E2  -1.635900406928619E1   4.927377406392422E1  -1.153088570965366E1  -1.531818291177363E2  -3.368141698685940E1  -4.333519527173932E1  
                        -1.658314823030549E1   1.114452406583695E2  -3.764727348697741E1   1.001214377998590E2  -3.378419075591229E1  -2.411751000224263E1  -3.627376997785814E1   1.606273093471878E2  
                        
 2.922504504504504E10   -1.238831742827584E1   1.439163314701881E2  -3.386259166316633E1   6.324796174817186E1  -2.181233423029699E1   1.648743344865206E2  -1.641545449106057E1  -1.187574007340936E2  
                        -3.433617590073930E1   8.688253286349968E1  -3.089247467509807E1   8.587800528046859E1  -1.637315872541276E1  -1.374718855300974E2  -3.787119934593464E1   9.002327652007736E1  
                        -2.202075529012871E1   1.676878644874945E2  -1.632749795905352E1  -1.580400527302701E2  -1.157377300757223E1   1.619917116487698E2  -3.431367958877822E1   1.072695701660816E2  
                        -1.668077956266851E1  -9.711830442146457E1  -3.775981425026406E1   8.875792638805663E1  -3.417443220308070E1   1.272677697701680E2  -3.420276091325643E1   1.519214159137324E2  
                        
 2.929510510510510E10   -1.184921280745162E1   1.059397996049958E2  -3.424047982025291E1  -1.477793107858150E2  -2.202367159944232E1   1.216425424331628E2  -1.657838917182037E1   3.406580472147795E1  
                        -3.457756599910574E1  -1.238802979151990E2  -3.054681340307644E1   3.221173397351377E1  -1.648167049736167E1   1.361287509125031E1  -3.805880418974977E1   7.777903369974199E1  
                        -2.210866228953522E1   1.234320111352768E2  -1.635911828442161E1  -7.249336452559224  -1.120313783895161E1   1.285210520324798E2  -3.413094757906488E1  -1.009517159200018E2  
                        -1.686897821939594E1   5.606833504470132E1  -3.795636392969391E1   7.576009737516091E1  -3.413805689066837E1  -7.959908403063677E1  -3.423030215474570E1   1.221518196989409E2  
                        
 2.936516516516516E10   -1.182667760328390E1   6.595854012307359E1  -3.450621530505572E1   3.138405870825862  -2.190196233638939E1   7.838020057081208E1  -1.649056913609741E1  -1.742269263077261E2  
                        -3.477377181756599E1   2.870467359833373E1  -3.132372205465772E1   4.108571781069023E1  -1.626304308585547E1   1.684895605267491E2  -3.832496214070554E1   6.786993196568515E1  
                        -2.228662357179946E1   7.941634027099082E1  -1.643727190770076E1   1.444912050099748E2  -1.192259876450281E1   8.326399979384657E1  -3.450172529394182E1   4.704155366656931E1  
                        -1.668201110292931E1  -1.514090179791577E2  -3.816120603423791E1   6.517300668656060E1  -3.422167631214004E1   6.792926377704123E1  -3.088014773806108E1   1.164434102235335E2  
                        
 2.943522522522522E10   -1.245047572747575E1   2.299551488831434E1  -3.454097489268548E1   1.544648815879108E2  -2.190286789530723E1   3.513698265385683E1  -1.665025625413395E1  -2.200924244416970E1  
                        -3.469517359028868E1  -1.796597866713108E2  -3.503114066166572E1   2.091015971122497E1  -1.605391369236377E1  -4.023263863155651E1  -3.823425164042534E1   5.594670920952832E1  
                        -2.206545161539768E1   3.471375328226865E1  -1.622766427025605E1  -6.413415490266895E1  -1.211799428777957E1   3.478536733105511E1  -3.482747470467687E1  -1.593400488942112E2  
                        -1.666947418455037E1  -1.962984525645184E-1  -3.804654332149701E1   5.388901096487633E1  -3.460578731337529E1  -1.389813444445059E2  -3.105463174378902E1   1.110959793424179E2  
                        
 2.950528528528528E10   -1.231963133293147E1  -2.167365988065506E1  -3.485105945083485E1  -5.469767296148982E1  -2.190135231227371E1  -1.142529197660308E1  -1.665340780969013E1   1.296821572834361E2  
                        -3.474958618673125E1  -2.980517829475916E1  -2.993093804288325E1  -8.395450277671213  -1.609475911460964E1   1.111278802099735E2  -3.846129917926258E1   4.357191418379080E1  
                        -2.218801416790230E1  -1.082403876179639E1  -1.653919567077410E1   8.689583130508457E1  -1.172687319517973E1  -6.379058195376348  -3.459294205378486E1  -9.296829468436657  
                        -1.664677312658167E1   1.517388820495895E2  -3.842499192976835E1   4.007811293109339E1  -3.422943563983363E1   1.054876651714644E1  -3.255274689132946E1   8.910961530029655E1  
                        
 2.957534534534535E10   -1.237344206560408E1  -6.986596157210151E1  -3.509919476793970E1   9.568063793843174E1  -2.209956046403588E1  -5.576295099504774E1  -1.669686884336785E1  -7.824575005890036E1  
                        -3.503257599300139E1   1.205052512877296E2  -3.494796904466700E1  -7.515144533675365E-1  -1.637662176027956E1  -9.746446491070655E1  -3.864494518496843E1   3.519113089846390E1  
                        -2.247697596426449E1  -5.505464356837866E1  -1.639562802800108E1  -1.209343238828056E2  -1.161988437486862E1  -5.902711145348492E1  -3.533514351083463E1   1.390120823397156E2  
                        -1.669548185943535E1  -5.694614694739205E1  -3.860809403963263E1   3.156192179427824E1  -3.485971127456006E1   1.587350629718141E2  -3.059056479738922E1   7.344540501261496E1  
                        
 2.964540540540540E10   -1.216572065608217E1  -1.143059727250280E2  -3.513437299783803E1  -1.144077312713402E2  -2.219670453867215E1  -9.956892561472645E1  -1.673233115118757E1   7.380581453572607E1  
                        -3.536635896532114E1  -8.815229641340706E1  -3.607293929726330E1  -4.333366512931472E1  -1.633275825912228E1   5.596913100067026E1  -3.852393515717228E1   2.347969444566974E1  
                        -2.262143521370961E1  -9.794316935437988E1  -1.640108341493476E1   3.032933128551543E1  -1.161958884371732E1  -9.768583878068542E1  -3.542761193863726E1  -6.638417310688814E1  
                        -1.677980747962970E1   9.539046607355834E1  -3.856193059550935E1   1.884723229660730E1  -3.522485345222971E1  -4.507036032341281E1  -2.887081848680739E1   7.699643440850818E1  
                        
 2.971546546546546E10   -1.181967338442265E1  -1.552697488600130E2  -3.562514078420179E1   3.626637388630967E1  -2.272876663975312E1  -1.439569700704194E2  -1.667425797657552E1  -1.343642925172639E2  
                        -3.565466377364519E1   6.358178846717526E1  -2.759381108130833E1  -4.443184785343650E1  -1.648708443015132E1  -1.529283775517262E2  -3.877535548029205E1   1.098147119856864E1  
                        -2.264517721457107E1  -1.422284732812437E2  -1.657159082688259E1  -1.777840485694147E2  -1.148129038792910E1  -1.385434669988128E2  -3.522271733453145E1   8.137628950077777E1  
                        -1.682513180234298E1  -1.117199420236663E2  -3.880295658754858E1   7.128105474456245  -3.512798619269860E1   1.034983793701853E2  -2.881976765089375E1   6.191950932052618E1  
                        
 2.978552552552552E10   -1.151328115807803E1   1.640673117500963E2  -3.567664593191030E1  -1.733859437626496E2  -2.269025218977022E1   1.728374441095015E2  -1.674165894133018E1   1.709855264977745E1  
                        -3.591176407473155E1  -1.453189391733168E2  -3.121712800953292E1  -4.010505863424437E1  -1.670264529949679E1   6.503695136749551E-1  -3.907807265325187E1   1.775858535945280  
                        -2.291495406300539E1   1.749987868044068E2  -1.653510167470464E1  -2.438072545038074E1  -1.116468432228012E1   1.784594953855176E2  -3.604140379970596E1  -1.292417257955030E2  
                        -1.700758973920038E1   4.061049505640458E1  -3.891919570504737E1  -3.209412663734814  -3.592773608637727E1  -1.084663065158676E2  -3.254811973582671E1   7.285068829365901E1  
                        
 2.985558558558558E10   -1.183839004747446E1   1.242441865575618E2  -3.612936226962138E1  -2.316200557415013E1  -2.277781828885846E1   1.315354895064487E2  -1.679375571460406E1   1.694535325111571E2  
                        -3.619354331545549E1   7.113820012464268  -3.107703417844922E1  -1.022419078358072E2  -1.608631754388080E1   1.542731180075310E2  -3.879968480166097E1  -1.051133173280910E1  
                        -2.270595550712071E1   1.354238507819582E2  -1.635928471951357E1   1.272890591492749E2  -1.218797406117488E1   1.438014934886307E2  -3.631610864212455E1   2.679599048504969E1  
                        -1.691723512274497E1  -1.642697531122524E2  -3.870779901009845E1  -1.363795641049729E1  -3.632724006388295E1   5.074810072637879E1  -3.152175269148855E1   5.695471930643875E1  
                        
 2.992564564564564E10   -1.230844805840895E1   8.425791331081460E1  -3.680329744450636E1   1.285344688125336E2  -2.234884052080905E1   8.655901205805293E1  -1.669823332949379E1  -3.927660108096819E1  
                        -3.657913761681864E1   1.577046270709842E2  -2.547138750655079E1  -7.956290910326025E1  -1.631914141804756E1  -5.484905996193899E1  -3.914700264899154E1  -2.076731519994415E1  
                        -2.262099068149905E1   8.934639917192820E1  -1.661447559411296E1  -8.146150882244031E1  -1.184846032920594E1   1.021369285559672E2  -3.601141389541515E1   1.764183586454425E2  
                        -1.671978497173101E1  -1.252376708803231E1  -3.909022840785149E1  -2.495269070436301E1  -3.552260374006859E1  -1.608678788447798E2  -3.310397405945588E1   6.600770642037121E1  
                        
 2.999570570570570E10   -1.245032518823282E1   4.038649191535321E1  -3.670227838303212E1  -7.716833501022187E1  -2.247868178684943E1   4.250304700112513E1  -1.681137050978208E1   1.121395629988473E2  
                        -3.675870428672879E1  -4.879453051034773E1  -2.664506942880719E1  -5.726410344225852E1  -1.626512582706379E1   9.808016591900044E1  -3.895332555243759E1  -3.158597556253594E1  
                        -2.268803236866221E1   4.725327407116291E1  -1.654261483964909E1   7.148947803869049E1  -1.192544236530306E1   5.639383864808339E1  -3.681739376586211E1  -3.461713456576437E1  
                        -1.673141536609935E1   1.388241346393785E2  -3.907004969089347E1  -3.457691290993521E1  -3.640079210936767E1  -1.207644603138064E1  -3.397933158591367E1   9.099095379414536E1  
                        
 3.006576576576576E10   -1.263096679689106E1  -6.307121476020766  -3.663071133738500E1   7.268181072517852E1  -2.224746509472563E1  -2.385943109604124  -1.661788524619533E1  -9.549181246632374E1  
                        -3.661706785089402E1   1.018611448000507E2  -2.806512467006681E1  -1.003648173868571E2  -1.584771826568361E1  -1.117593246495986E2  -3.885621013289401E1  -4.318022068166073E1  
                        -2.223232059228149E1   2.490613197654596  -1.626671229569179E1  -1.359644615049672E2  -1.432028685577882E1   1.348438770116666E1  -3.748154623116822E1   1.215343553506851E2  
                        -1.656475174916864E1  -6.904582496666812E1  -3.880705479229799E1  -4.599365228884192E1  -3.706137550882401E1   1.426978811185600E2  -4.333387779710672E1   3.193166893542568E1  
                        
 3.013582582582583E10   -1.324673503140361E1  -5.184411038939830E1  -3.740650417699421E1  -1.371494340461740E2  -2.220810058164234E1  -4.713160984565722E1  -1.668634663776669E1   5.732226811302246E1  
                        -3.723352809041798E1  -1.115248635901502E2  -2.386989921088923E1  -9.250818452318865E1  -1.614405345306684E1   3.598463136505203E1  -3.908284057192448E1  -5.480212240327318E1  
                        -2.237105563801369E1  -4.374137033590987E1  -1.632987489266193E1   1.561765503563181E1  -1.309371205018640E1  -3.680927412201996E1  -3.717213800671727E1  -8.694956544171185E1  
                        -1.650929313449766E1   8.123130811143710E1  -3.883053072101579E1  -5.734266778956762E1  -3.657402155762764E1  -6.854064470610308E1  -3.528209870359881E1   4.188798702611740E1  
                        
 3.020588588588588E10   -1.356224657666530E1  -9.905104944944239E1  -3.758740696101274E1   1.762326510580139E1  -2.242906259836242E1  -9.118769487566610E1  -1.667300073547517E1  -1.504508881688459E2  
                        -3.750754979731709E1   4.323755950601679E1  -2.603590275170511E1  -9.372168731527982E1  -1.635969503780249E1  -1.719214015820957E2  -3.900790145158533E1  -6.605765905682959E1  
                        -2.250293483268770E1  -8.856023554472708E1  -1.635488805964061E1   1.670878386306214E2  -1.338536573037266E1  -7.959296509462537E1  -3.776713042560350E1   6.382707325727027E1  
                        -1.675390086006208E1  -1.281349033740505E2  -3.902011166503768E1  -6.916501642637275E1  -3.733640454949507E1   8.128038348663429E1  -3.812743395737897E1   9.196930539142637E1  
                        
 3.027594594594594E10   -1.299178906484702E1  -1.437768530083424E2  -3.743319063591518E1   1.681497545106717E2  -2.233746040778438E1  -1.348748762505935E2  -1.674327718840782E1   1.801340911311541  
                        -3.775621862390987E1  -1.684185722956120E2  -2.385609677286065E1  -1.162667402874956E2  -1.626586562278626E1  -1.791416184931643E1  -3.906438657051917E1  -7.830485989990324E1  
                        -2.253438357976993E1  -1.330785232439328E2  -1.626582604793096E1  -4.056869249182599E1  -1.350168302370631E1  -1.259207102469099E2  -3.774041341063136E1  -1.449247870779064E2  
                        -1.669979728195450E1   2.393044602996438E1  -3.909919281225096E1  -8.095952301106831E1  -3.768812184059932E1  -1.241999820996101E2  -4.242310999864499E1   1.732577678409656E2  
                        
 3.034600600600600E10   -1.275971495643549E1   1.736022773943782E2  -3.810255410415824E1  -4.115691849591747E1  -2.230134776818068E1  -1.791854747445015E2  -1.671401006984388E1   1.560619047017778E2  
                        -3.849146473395802E1  -2.000676373941587E1  -2.503441379231574E1  -1.099229592501203E2  -1.637258619470563E1   1.335426905094502E2  -3.913060019729844E1  -8.826381633081627E1  
                        -2.269684293408672E1  -1.773540515301503E2  -1.611858348424207E1   1.109158461956667E2  -1.266553863158919E1  -1.621483192972716E2  -3.824608197735297E1   8.341971965658487  
                        -1.699090999093756E1   1.745853441990658E2  -3.901322628448290E1  -9.123848424995937E1  -3.826979083291536E1   2.568990048726431E1  -3.978796514630324E1   1.477879554151550E2  
                        
 3.041606606606606E10   -1.293795865545663E1   1.382805657227852E2  -3.875367946991113E1   1.132720974014788E2  -2.225204450030464E1   1.390930548195292E2  -1.660740954581564E1  -5.040039164925828E1  
                        -3.936162011027810E1   1.361510446567565E2  -2.582848816036093E1  -1.378409108971173E2  -1.656612757737857E1  -7.311850192755966E1  -3.888824217916729E1  -9.972735955549605E1  
                        -2.257156608125405E1   1.387316126173394E2  -1.625741505218834E1  -9.840203042718092E1  -1.374338750209836E1   1.659679410900667E2  -3.815863282434172E1   1.624115458518843E2  
                        -1.691327654054659E1  -3.309597329030559E1  -3.880854926456004E1  -1.040410579370788E2  -3.820093638757302E1  -1.780373812204975E2  -3.330005724888176E1   1.643417850794891E2  
                        
 3.048612612612613E10   -1.332150331934646E1   1.030939051259619E2  -3.881806806281379E1  -9.391464337737241E1  -2.211694649240089E1   9.629646889812013E1  -1.645038658397836E1   1.010670963500422E2  
                        -3.932473891918166E1  -7.005936340292841E1  -2.339288874568620E1  -1.346313408788199E2  -1.605972110755986E1   7.836596692454550E1  -3.903718058459155E1  -1.094325025139545E2  
                        -2.250946272655196E1   9.401579117196934E1  -1.635176960114701E1   5.349472937543299E1  -1.402991989067704E1   1.206776480889246E2  -3.856012238443886E1  -5.120879880339455E1  
                        -1.679751176103365E1   1.177609020798263E2  -3.910893169223304E1  -1.159274923982014E2  -3.859965759386683E1  -3.238853104498691E1  -2.775898439914812E1  -1.694655006392175E2  
                        
 3.055618618618618E10   -1.435474072457012E1   5.945142986664497E1  -3.965524324598744E1   5.610219740711299E1  -2.210389501817526E1   5.119191918451706E1  -1.655322514506621E1  -1.069001120712425E2  
                        -3.979338777349098E1   8.106264658240006E1  -2.480479698126655E1  -1.255486744202081E2  -1.580542971630106E1  -1.290320344967692E2  -3.884787728483630E1  -1.196802650964568E2  
                        -2.228861668897595E1   5.110791654807298E1  -1.617017415263486E1  -1.542630823826730E2  -1.562654056268341E1   8.864516326890600E1  -4.051100354314749E1   1.060006703629266E2  
                        -1.681351483472728E1  -9.017622332561101E1  -3.888113346640412E1  -1.271923775296628E2  -4.053858339520857E1   1.238184776482521E2  -2.848382589069357E1  -1.693946509088328E2  
                        
 3.062624624624624E10   -1.584984157561639E1   1.538824619536803E1  -4.039578763555896E1  -1.477437337637689E2  -2.167930999965382E1   7.498452194993328  -1.642800198465287E1   4.542029217973218E1  
                        -4.055951401511898E1  -1.218698996652153E2  -2.752070067076993E1  -1.466693770336962E2  -1.579942247182254E1   2.303369112988530E1  -3.867772610739567E1  -1.322588393420294E2  
                        -2.197272569915717E1   6.274777824684775  -1.609547926161681E1  -4.244766819405684  -1.759184780556197E1   4.935588030128628E1  -3.963798663546330E1  -9.367886770045664E1  
                        -1.666731433098212E1   6.236970679079635E1  -3.872484585802703E1  -1.393462709909841E2  -3.952422007837425E1  -7.619853249113150E1  -2.661994474919414E1   1.774252794748171E2  
                        
 3.069630630630631E10   -1.656341799903258E1  -3.453337793385584E1  -4.042242346326215E1   6.952216049065696  -2.152258137655640E1  -4.089307418391079E1  -1.636345459181748E1  -1.639525246224892E2  
                        -4.027634801408888E1   3.386078340161624E1  -2.337488221500268E1  -1.597907588212840E2  -1.572441199160004E1   1.725868018311585E2  -3.874845818056134E1  -1.434766443761488E2  
                        -2.211808376669018E1  -3.985873376196894E1  -1.626449487715678E1   1.482609088686433E2  -1.643003380047180E1  -1.116212036486164E1  -3.950275261147157E1   5.044247681525330E1  
                        -1.655634425695877E1  -1.463661809380113E2  -3.882196719101078E1  -1.509964306141108E2  -3.912397535449204E1   6.869533051109593E1  -2.521563634288454E1   1.689718316812379E2  
                        
 3.076636636636636E10   -1.576043474199344E1  -8.039273200232488E1  -4.031571098404096E1   1.589203314544834E2  -2.160894698741683E1  -8.473545245430388E1  -1.632860727221360E1  -1.296342179225165E1  
                        -4.012432176969809E1  -1.751241399066724E2  -2.493877338122249E1  -1.403697993702047E2  -1.591590439106725E1  -3.667683272638128E1  -3.872932509682662E1  -1.557474713460127E2  
                        -2.199294658073130E1  -8.308409085827481E1  -1.614958135708479E1  -6.001074839683773E1  -1.911635836106093E1  -5.207455521817643E1  -4.129864809218694E1  -1.540206025825719E2  
                        -1.659234450579991E1   5.376938032597697  -3.886526252540437E1  -1.622026017817568E2  -4.085075367079577E1  -1.359725876132341E2  -2.422749655219768E1   1.647962458242689E2  
                        
 3.083642642642642E10   -1.590837540437108E1  -1.234754746131690E2  -4.096092204998810E1  -5.174881388194663E1  -2.181556654583962E1  -1.309268194025750E2  -1.642586436601210E1   1.375699323063152E2  
                        -4.090071061218406E1  -2.411525482287233E1  -2.734075417690811E1  -1.526463545985738E2  -1.577642025938071E1   1.148223247303003E2  -3.863165522627647E1  -1.685213463390836E2  
                        -2.195592736977994E1  -1.285223649173725E2  -1.604976430562273E1   9.165229629381319E1  -1.762896942841602E1  -9.615631407441809E1  -4.038409587086778E1   5.871172941833446  
                        -1.666335275251322E1   1.578830268090523E2  -3.887424136387971E1  -1.735243452102658E2  -4.036753641784521E1   2.309128860220846E1  -2.308139273544049E1   1.693748790034954E2  
                        
 3.090648648648649E10   -1.631948164246413E1  -1.589880886791640E2  -4.189975880394628E1   1.029875847510031E2  -2.199750464002110E1  -1.754656353229256E2  -1.644585656346695E1  -7.175102765432924E1  
                        -4.180823025032638E1   1.318700239204664E2  -2.525794751873873E1  -1.721680454167726E2  -1.609395100721340E1  -9.384266985640672E1  -3.872532371488113E1  -1.793984204899267E2  
                        -2.207170561529024E1  -1.715910840197993E2  -1.633085616442326E1  -1.171345040918608E2  -1.538827306793087E1  -1.310694027417530E2  -4.027428455086024E1   1.524551008947458E2  
                        -1.672423775095120E1  -4.924781356736756E1  -3.882609491388096E1   1.744210753143203E2  -4.028174027468431E1   1.685332421910414E2  -2.340132016910793E1   1.489835195381729E2  
                        
 3.097654654654654E10   -1.634295368652831E1   1.663286814256755E2  -4.186888983890520E1  -1.001064650042961E2  -2.180354216850751E1   1.397773115237050E2  -1.645963365741619E1   7.949998067106459E1  
                        -4.145724885756232E1  -7.042633597791826E1  -2.379796202946789E1  -1.520643607477728E2  -1.603263539969699E1   5.889881835784094E1  -3.879360361467506E1   1.676986864192173E2  
                        -2.194020271504844E1   1.438862020248964E2  -1.617105325982807E1   3.399604427312287E1  -1.797934800239473E1  -1.611159126539810E2  -4.208138881376376E1  -5.441194528637914E1  
                        -1.659839198343902E1   1.029070849806215E2  -3.886504233029372E1   1.621453900615863E2  -4.257272419968241E1  -3.470671088035958E1  -2.131323964281550E1   1.526167776927497E2  
                        
 3.104660660660661E10   -1.710458048973560E1   1.250108017677039E2  -4.301728267890297E1   4.840950603163177E1  -2.171769006773606E1   9.354607136287240E1  -1.648447933155486E1  -1.288187099464757E2  
                        -4.288201650672499E1   7.916640557368329E1  -2.685974193475384E1  -1.351887047019287E2  -1.612615926205305E1  -1.495611341947553E2  -3.873482915236239E1   1.560448876709093E2  
                        -2.203444997639711E1   1.006687062539539E2  -1.608097231833332E1  -1.737872037074598E2  -1.682401960686840E1   1.680446149596332E2  -4.160498008561986E1   1.101305575648251E2  
                        -1.665218133198056E1  -1.049687398455579E2  -3.892732172226138E1   1.513933659703300E2  -4.209245638501084E1   1.297408730935807E2  -2.154295627958856E1   1.573685178305025E2  
                        
 3.111666666666666E10   -1.863646061005881E1   9.285819616749259E1  -4.361521451043161E1  -1.388964583315225E2  -2.189164978212642E1   5.120990892497770E1  -1.642697217385593E1   2.343606500366219E1  
                        -4.346341025400243E1  -1.127129195314784E2  -2.742744361271202E1  -1.498728017088510E2  -1.603474324318161E1   4.337910462455814  -3.861813641163223E1   1.445801688248463E2  
                        -2.175727958399125E1   5.561071563633041E1  -1.602070850821037E1  -2.316341468227616E1  -1.694083358929152E1   1.415899420831520E2  -4.110585219000816E1  -9.939993163280035E1  
                        -1.657329259305201E1   4.727006851965849E1  -3.867303661773749E1   1.397893122669014E2  -4.122982855436783E1  -7.662795584186550E1  -2.388132281862714E1   1.500901466046609E2  
                        
 3.118672672672672E10   -1.905921507840887E1   5.667271403157205E1  -4.205778868004402E1   1.638256091098454E1  -2.148008365417849E1   7.186104894543252  -1.640991128298875E1   1.751485587732917E2  
                        -4.191902054487176E1   4.396699599421747E1  -2.406545009396923E1  -1.483666358272365E2  -1.620239662360313E1   1.541278204027125E2  -3.858968812243211E1   1.332706586823462E2  
                        -2.161902330744461E1   1.018688517802194E1  -1.606800687786778E1   1.282529059242803E2  -2.045484797339217E1   1.173636280547011E2  -4.202311388024523E1   5.885283915170225E1  
                        -1.644307411919400E1  -1.621231920413791E2  -3.874425106845902E1   1.282604626770640E2  -4.234247601522183E1   7.617767054968476E1  -2.202608583711194E1   1.399607484877012E2  
                        
 3.125678678678679E10   -2.114933215538572E1   8.870968528441816  -4.208441713574202E1   1.683547887495605E2  -2.167114367751215E1  -3.745741654849915E1  -1.634332366341030E1  -3.339905618273104E1  
                        -4.186550636630127E1  -1.640264305913621E2  -2.440229605119150E1  -1.518323646600667E2  -1.623166285038421E1  -5.278171454730435E1  -3.852113676070844E1   1.213796302421577E2  
                        -2.165307016966608E1  -3.602040590675890E1  -1.600424792527771E1  -8.012182807721618E1  -2.141562742483914E1   7.422049725681572E1  -4.142553129223773E1  -1.417328290921980E2  
                        -1.662168568527472E1  -1.103630145057029E1  -3.853887589296252E1   1.154159193592719E2  -4.152295026788337E1  -1.215013022300050E2  -2.130574580102804E1   1.508546137383460E2  
                        
 3.132684684684684E10   -2.272653824900727E1  -3.468171994406450E1  -4.159129396092038E1  -3.423553428108659E1  -2.139654893655446E1  -8.190504323717562E1  -1.634352155028025E1   1.186441636387686E2  
                        -4.189505596489901E1  -6.672845100007441  -2.215811965145952E1  -1.479304378125480E2  -1.569912938231078E1   9.685802829191172E1  -3.860574373268329E1   1.098709098029072E2  
                        -2.140377265159541E1  -8.097015556588910E1  -1.614441363895671E1   6.988353665195626E1  -2.216887167393947E1   3.656090824019572E1  -4.084998603865596E1   1.270577454907271E1  
                        -1.638748766886177E1   1.406861444118422E2  -3.863402359554868E1   1.033193056706586E2  -4.098039075620810E1   3.280784521699773E1  -2.213743720747046E1   1.574418600622033E2  
                        
 3.139690690690691E10   -2.245014625811178E1  -6.813459109289757E1  -4.112429465329601E1   1.208031890380809E2  -2.133190464937999E1  -1.272415624112056E2  -1.635136284832833E1  -8.933173597105069E1  
                        -4.129585425833358E1   1.482409321268416E2  -2.491495741237157E1  -1.367583890238892E2  -1.612726699065400E1  -1.115450405652880E2  -3.863566237449323E1   9.781837705319923E1  
                        -2.138229843340710E1  -1.274373545935938E2  -1.602519073552097E1  -1.392464479425456E2  -2.237799461842785E1  -3.680877129379791E1  -4.018934776737774E1   1.623348638935680E2  
                        -1.637353216395121E1  -6.904166354223136E1  -3.867715393419012E1   9.073308431765832E1  -4.019275568971250E1  -1.770286357070596E2  -2.276793260144894E1   1.334537133373296E2  
                        
 3.146696696696697E10   -2.161690670309263E1  -1.196831755618841E2  -4.070896719453830E1  -9.047123203928221E1  -2.158690250373834E1  -1.718964175766865E2  -1.637851894971719E1   6.196399320992460E1  
                        -4.105519300551524E1  -6.437858113028682E1  -2.490478941551936E1  -1.690307717348223E2  -1.583648450329308E1   3.986120534218381E1  -3.869636522312118E1   8.562919208682999E1  
                        -2.166607613177079E1  -1.723441162605911E2  -1.612603356746815E1   1.309987066207466E1  -2.111000461282726E1  -7.878526276218240E1  -4.120991145067100E1  -4.679261512057668E1  
                        -1.668816094737645E1   8.247583233916366E1  -3.870675325046766E1   7.956501391564949E1  -4.129178028905350E1  -2.423927661453239E1  -2.077386300449806E1   1.317625616309446E2  
                        
 3.153702702702702E10   -2.075316606427944E1  -1.608424239356481E2  -4.138424960643042E1   6.673454754397395E1  -2.122302058132570E1   1.446165513216684E2  -1.651915469164337E1  -1.468068808522428E2  
                        -4.182874895200425E1   9.340567364486084E1  -2.092061741116887E1  -1.529573518047658E2  -1.637022435689682E1  -1.697236384627139E2  -3.874719726010918E1   7.354006835219991E1  
                        -2.152934601102664E1   1.442660458654091E2  -1.631574643599574E1   1.645461791332604E2  -1.867004205253724E1  -1.092606012643064E2  -4.056194101930296E1   1.148420221313260E2  
                        -1.651848645251645E1  -1.257372564638835E2  -3.891269037180922E1   6.798392946382033E1  -3.999648619799945E1   1.365229609221042E2  -1.948269457989163E1   1.398676781965719E2  
                        
 3.160708708708709E10   -2.112515671899023E1   1.686053635111290E2  -4.098995622646577E1  -1.351810790365590E2  -2.167860351744674E1   9.679305425778172E1  -1.630030463205414E1   5.334041178664077  
                        -4.108467061343870E1  -1.073947432763357E2  -2.305926463972991E1  -1.344144180377360E2  -1.657737584890195E1  -1.875654408009813E1  -3.866825973224253E1   6.300410050083054E1  
                        -2.149245738790238E1   9.847632012838389E1  -1.621699898468049E1  -4.285342041214970E1  -1.611944834591244E1  -1.585513049192225E2  -3.897728495016199E1  -9.573488515740972E1  
                        -1.669349861769193E1   2.495759035846997E1  -3.893848069774612E1   5.686636100772314E1  -3.944085628958726E1  -7.796155691711815E1  -2.194273342716813E1   1.429368540804073E2  
                        
 3.167714714714714E10   -1.882210171996539E1   1.309861257025951E2  -3.983449501551647E1   2.035732137874079E1  -2.178466145710338E1   5.449835313498964E1  -1.646816560990793E1   1.563021890490486E2  
                        -4.000519465086595E1   4.911698115808936E1  -2.430018511420599E1  -1.756788225167074E2  -1.642534350895966E1   1.340527626684534E2  -3.849579531080651E1   5.143564096907812E1  
                        -2.165082459183092E1   5.554446236112719E1  -1.621334739518315E1   1.091119228804874E2  -1.692985263101399E1  -1.746529718922117E2  -4.008646369733415E1   5.762572568753422E1  
                        -1.674717656110792E1   1.789275015080240E2  -3.866926377827446E1   4.568697844665867E1  -4.078942982753632E1   7.750070930316426E1  -2.293515990456909E1   1.307473320676324E2  
                        
 3.174720720720720E10   -1.942825491892668E1   1.019876088706732E2  -3.944068723846693E1   1.694271984971137E2  -2.163175438584297E1   8.745929339827219  -1.641329058102188E1  -5.141590309167388E1  
                        -3.944531656931419E1  -1.612040867493934E2  -2.156890872138983E1   1.791709812565300E2  -1.651787163656664E1  -7.482035936132384E1  -3.877070433904251E1   3.954095907007047E1  
                        -2.154437364301731E1   1.168607043762325E1  -1.628812666037858E1  -9.903320108665635E1  -1.618305227302021E1   1.559272115374240E2  -3.909724568442155E1  -1.373495159484639E2  
                        -1.657160713961297E1  -2.989307016303018E1  -3.889564048625331E1   3.379992641221060E1  -3.936252957935498E1  -1.189053938897814E2  -2.103085302650345E1   1.187545945790089E2  
                        
 3.181726726726727E10   -2.066239055522312E1   7.317815085186729E1  -3.880335459433179E1  -3.206982542795583E1  -2.131772387923109E1  -3.620749980628244E1  -1.646960089110409E1   9.861718308698396E1  
                        -3.908657945922299E1  -4.725383361739355  -2.254456080941751E1  -1.549928902788242E2  -1.661641824618535E1   7.854490676186242E1  -3.854560999512113E1   2.869568240483176E1  
                        -2.135723210009275E1  -3.277164560767975E1  -1.634057308145685E1   5.441491523522978E1  -1.591769665698190E1   1.112124150492256E2  -3.747380159798979E1   9.149019001131531  
                        -1.668804488357811E1   1.219211662786174E2  -3.871999349381375E1   2.277961633367751E1  -3.771867680864479E1   2.705843188373419E1  -2.120849131088247E1   1.267492209783600E2  
                        
 3.188732732732732E10   -1.979174538769720E1   3.720612736844473E1  -3.750427369301750E1   1.168825329066591E2  -2.161093356124190E1  -7.954768316981610E1  -1.651376382577205E1  -1.091925009858344E2  
                        -3.735955407678048E1   1.462259662825881E2  -2.635323767192942E1  -1.660441199431054E2  -1.625051452388022E1  -1.291793949153036E2  -3.846466372208555E1   1.590734902126513E1  
                        -2.132392649853290E1  -7.758744601284512E1  -1.621368059532253E1  -1.545630158487217E2  -2.022061532555931E1   9.511574231723597E1  -3.847491239039125E1   1.591956060669492E2  
                        -1.658088259643311E1  -8.576078501270543E1  -3.873527098461509E1   1.186883374479965E1  -3.821754062443971E1   1.772418929759132E2  -2.407000846652074E1   1.252705653632716E2  
                        
 3.195738738738739E10   -2.209554960464781E1   1.377577135599097  -3.745373013938566E1  -9.578796117384816E1  -2.119132990281156E1  -1.248459373950475E2  -1.659927027430374E1   4.222123464465037E1  
                        -3.750493955103418E1  -6.963139490381765E1  -2.366422867463201E1   1.735369895965260E2  -1.628896794530622E1   1.947142706511353E1  -3.850526789296340E1   3.705257451641420  
                        -2.127124833786661E1  -1.224916982500691E2  -1.625698800237378E1  -2.833577429434328  -2.205126615301823E1   3.735698413058557E1  -3.769054043289708E1  -4.384905570337248E1  
                        -1.673820320849431E1   6.490023218507413E1  -3.845121579763129E1  -5.818220675880537E-1  -3.774066077700558E1  -2.483575858417039E1  -2.283550445076392E1   1.112734968326486E2  
                        
 3.202744744744745E10   -2.344241756578876E1  -3.078346277069998E1  -3.767843624079184E1   5.913905939528714E1  -2.134105320105425E1  -1.718005896295483E2  -1.658979325178824E1  -1.670146115140288E2  
                        -3.791786451156509E1   8.581105701638336E1  -2.249401918047107E1  -1.710733401086465E2  -1.632439003853455E1   1.705122159270261E2  -3.859456072108155E1  -8.991132240829032  
                        -2.120784732558321E1  -1.674915167609598E2  -1.632351513696002E1   1.480007724121396E2  -2.030847380668333E1  -2.298709025670474E1  -3.637152927052831E1   1.041308781886312E2  
                        -1.667541759754189E1  -1.433250267443433E2  -3.854224252980881E1  -1.253058725432959E1  -3.651155737577235E1   1.249129112586170E2  -2.072872538491231E1   1.135073287511450E2  
                        
 3.209750750750750E10   -2.327069500292115E1  -7.225307266325821E1  -3.708275180306790E1  -1.474609568038717E2  -2.091785256474696E1   1.437384801787867E2  -1.665395441489823E1  -1.536845915417786E1  
                        -3.681114424725480E1  -1.199289119006449E2  -2.366012217152098E1  -1.703611513077712E2  -1.607367362021692E1  -3.718622926552506E1  -3.834909363996559E1  -2.150963042305819E1  
                        -2.111159364044951E1   1.473307120001710E2  -1.624038639227759E1  -6.090083601980271E1  -2.205048258138037E1  -7.374988003214051E1  -3.649635867055677E1  -1.098351304160731E2  
                        -1.668117389184867E1   7.521683674644066  -3.851907135982377E1  -2.528992857536140E1  -3.671299836329560E1  -9.003828711620390E1  -2.144607239547279E1   1.248694631806517E2  
                        
 3.216756756756757E10   -2.626232048096996E1  -1.503564900006072E2  -3.653644031637199E1   3.485755159321737  -2.141893209889674E1   9.819989295454965E1  -1.666841883365804E1   1.363733765272132E2  
                        -3.638160167841991E1   3.019215894810164E1  -2.362398570630063E1   1.721019571307434E2  -1.641481814333477E1   1.147570107696697E2  -3.837161955534047E1  -3.258445833191112E1  
                        -2.111654122905140E1   1.010819991066491E2  -1.637527029666873E1   9.060233976924521E1  -1.896158897118796E1  -1.237159081309956E2  -3.642190973804802E1   4.470021804644848E1  
                        -1.674575998384836E1   1.600275216306226E2  -3.859111050704251E1  -3.701124022996282E1  -3.681886306256764E1   6.397381352798586E1  -2.465552084673666E1   1.222306574501985E2  
                        
 3.223762762762763E10   -2.428013196144432E1   1.690788645180053E2  -3.632753497200415E1   1.562705854141412E2  -2.108081628031391E1   5.327087121399089E1  -1.678083041062439E1  -7.193879848177159E1  
                        -3.617406805240857E1  -1.779945787794961E2  -2.271022901224783E1   1.736969695024598E2  -1.662070446271665E1  -9.578405999670454E1  -3.836891578571970E1  -4.389541927050973E1  
                        -2.124891863135033E1   5.654669737551103E1  -1.634379499341525E1  -1.182710600191821E2  -1.606105004469264E1  -1.421076463526912E2  -3.622733965808325E1  -1.630611541511684E2  
                        -1.682807884943621E1  -4.919932388442447E1  -3.859881841737623E1  -4.840088004005749E1  -3.629618468852407E1  -1.413185771205403E2  -2.295686208488676E1   1.065095244577920E2  
                        
 3.230768768768768E10   -2.117395673795692E1   1.323138555409214E2  -3.551730542000362E1  -5.137889855448157E1  -2.122203575123337E1   7.920964434445918  -1.680711234799740E1   7.940688816162920E1  
                        -3.563869907865627E1  -2.515620923357465E1  -2.273113859499965E1   1.609021893068981E2  -1.653069990508609E1   5.724182954818486E1  -3.832350044108635E1  -5.528096064255024E1  
                        -2.116282803520070E1   1.158682810307591E1  -1.644453144227706E1   3.392203687036034E1  -1.774198463299625E1   1.783010511866018E2  -3.575630329641330E1  -1.101295107222894E1  
                        -1.698803272682612E1   1.026983099174939E2  -3.848432324914141E1  -5.916530700184004E1  -3.578813406437264E1   6.819306755958072  -2.083286470495539E1   1.086361208178341E2  
                        
 3.237774774774775E10   -1.880713748452443E1   9.548789841732717E1  -3.439325632902777E1   9.918407173965493E1  -2.105515737903894E1  -3.626868043495436E1  -1.693631498424629E1  -1.279708397549495E2  
                        -3.443684220648318E1   1.241380597403296E2  -2.248884366849881E1   1.690154995131724E2  -1.655463070567450E1  -1.512530884451027E2  -3.820888924981228E1  -6.754749398289478E1  
                        -2.115228833253070E1  -3.429869397151261E1  -1.649481121502333E1  -1.728477730872682E2  -1.644010977946958E1   1.504764509071206E2  -3.575409312191714E1   1.393643549553212E2  
                        -1.707953580697774E1  -1.047503084375030E2  -3.813323188924535E1  -7.008256380022428E1  -3.587681914980271E1   1.585960891693215E2  -2.158002459819502E1   1.049992595136684E2  
                        
 3.244780780780780E10   -1.911846149161134E1   7.302237314383962E1  -3.425086865512517E1  -1.155517082600121E2  -2.145145125748983E1  -8.352674675081848E1  -1.687855752928848E1   2.355392922566190E1  
                        -3.442907845703441E1  -8.973965939277480E1  -2.592536519773755E1   1.580704346061428E2  -1.676939476144422E1   1.348140583788029  -3.790037886098911E1  -7.893596345434195E1  
                        -2.129730546080811E1  -7.902544144664702E1  -1.651857282032502E1  -2.247016650733356E1  -1.677056998925950E1   1.351596536294304E2  -3.561320939627077E1  -6.529241786672181E1  
                        -1.698412040361293E1   4.680716433505981E1  -3.799489818247399E1  -8.344363978831851E1  -3.605659307975427E1  -4.671771853073093E1  -2.283651563360728E1   9.294288613468818E1  
                        
 3.251786786786787E10   -1.912936360955920E1   5.593604221898968E1  -3.449639082454198E1   3.628708675260565E1  -2.101131701668307E1  -1.269679805600896E2  -1.684795145614947E1   1.750256365517555E2  
                        -3.466194318617961E1   6.087056643699221E1  -2.316908712392203E1   1.480916930030798E2  -1.691191160843230E1   1.531499992443719E2  -3.798007507895454E1  -9.369700459658229E1  
                        -2.102639298999729E1  -1.221217791721445E2  -1.651483971178632E1   1.295718670746034E2  -2.020403943932082E1   9.284163422425226E1  -3.416805980888957E1   8.543625209813867E1  
                        -1.712553920344484E1  -1.614813568032388E2  -3.804217428791879E1  -9.534134604372453E1  -3.456108076947157E1   1.069883940313743E2  -2.184767538753624E1   8.452265727538173E1  
                        
 3.258792792792793E10   -2.009185191941763E1   2.576267595200385E1  -3.363808284055632E1  -1.742339980176743E2  -2.071940515053254E1  -1.741795354475038E2  -1.694575803971165E1  -3.336920109140619E1  
                        -3.385151995798990E1  -1.476174280369824E2  -2.156991951139384E1   1.682530768161865E2  -1.654704227486257E1  -5.700791035867065E1  -3.781013975688256E1  -1.059827410419112E2  
                        -2.074009610057416E1  -1.696043525573591E2  -1.654086963012957E1  -7.819967837191915E1  -2.073055904483792E1   7.152407985630289E1  -3.396376109691941E1  -1.320240767013337E2  
                        -1.697814910511281E1  -9.405199428225851  -3.819900545862534E1  -1.089525451608473E2  -3.429548564485106E1  -1.130616494186887E2  -2.118357825397152E1   9.331516379141648E1  
                        
 3.265798798798798E10   -2.346364302680741E1   4.973767887589489  -3.345967851167780E1  -2.679086263757849E1  -2.100034778551105E1   1.432420701637449E2  -1.683246305034717E1   1.186910959312199E2  
                        -3.367103435948619E1  -2.888357675100263  -2.328919746955461E1   1.766870169101406E2  -1.640878445210418E1   9.311153545607395E1  -3.772198089851867E1  -1.185480329104765E2  
                        -2.099233615315117E1   1.446408349536545E2  -1.645320938714544E1   7.369515621144733E1  -2.220397583401070E1   5.413641482085944E1  -3.462176845055613E1   2.121863627930426E1  
                        -1.706261469584068E1   1.411056000447561E2  -3.809747423706458E1  -1.203879815273419E2  -3.501679244076137E1   3.920666597165360E1  -2.465727349293895E1   9.626852995038654E1  
                        
 3.272804804804805E10   -2.709850724244068E1  -1.408560627964961E1  -3.409759075949038E1   1.223126031325676E2  -2.104776915303800E1   9.732227061351162E1  -1.678689257711527E1  -8.927852481526386E1  
                        -3.425958860386069E1   1.487736710163162E2  -2.221522610287043E1   1.387908123857548E2  -1.663158148831124E1  -1.112814151756996E2  -3.793152691678140E1  -1.308789513739333E2  
                        -2.092116585130212E1   1.012287035088810E2  -1.654997494306965E1  -1.354649720128502E2  -2.397998523769953E1  -6.536292729110321E1  -3.371646924629659E1   1.746994417885314E2  
                        -1.696868875819502E1  -6.758417703259821E1  -3.820506806227607E1  -1.342440289233992E2  -3.411320442673814E1  -1.659103585660280E2  -2.321387453989881E1   6.865124037362594E1  
                        
 3.279810810810811E10   -3.008291218609324E1  -1.220784089606862E2  -3.356861831081638E1  -7.960647468734527E1  -2.046960300693539E1   4.996684014694960E1  -1.707438556442651E1   6.168881196287620E1  
                        -3.361837389957439E1  -5.607134376565779E1  -2.067156394407016E1   1.489983891748967E2  -1.660201013419177E1   3.633635058910114E1  -3.812250805494447E1  -1.431897767141288E2  
                        -2.065763115025803E1   5.342657524778909E1  -1.654610742338711E1   1.670899245137047E1  -2.412905008442844E1  -5.825613272391582E1  -3.362425026079495E1  -4.179377791383456E1  
                        -1.696718743278455E1   8.312102827181208E1  -3.806747996266358E1  -1.456332896088741E2  -3.364718472103939E1  -2.403424873323414E1  -2.101336440357489E1   7.730728087851193E1  
                        
 3.286816816816817E10   -2.811001300247380E1   1.698206449128734E2  -3.270100728370588E1   6.648725761538839E1  -2.101769909448692E1   2.165107854694048  -1.704659922647132E1  -1.468192672926307E2  
                        -3.306063441807648E1   9.153468358250440E1  -2.227000051729246E1   1.643877833352743E2  -1.662659201443005E1  -1.735335733464918E2  -3.803166773915357E1  -1.543005779959967E2  
                        -2.108036038682237E1   8.027190914856837  -1.650822404322718E1   1.673604915641241E2  -2.136151683363837E1  -1.230586886357275E2  -3.444364976563395E1   1.116224137001927E2  
                        -1.726407483202213E1  -1.246795098252431E2  -3.808852945275760E1  -1.576552684260790E2  -3.506365275950106E1   1.292346088274884E2  -2.192252461290334E1   8.656764279631284E1  
                        
 3.293822822822823E10   -2.438050965206383E1   1.513078041748021E2  -3.289711284224099E1  -1.438751900846065E2  -2.138943521883603E1  -4.300265944052079E1  -1.712391645276399E1   5.279401602811309  
                        -3.278653552203036E1  -1.188897483717941E2  -2.446183045311871E1   1.402213265401573E2  -1.678621130067485E1  -2.017182546605512E1  -3.779395180867055E1  -1.657646310768007E2  
                        -2.112386376889360E1  -3.643750081753612E1  -1.682357169586926E1  -3.964152999099998E1  -1.670173841417155E1  -1.715049052938106E2  -3.366810443453181E1  -9.205922998453681E1  
                        -1.729849282278157E1   2.809655563771327E1  -3.791082407803474E1  -1.695928352307205E2  -3.367985003525560E1  -7.625882434664871E1  -2.211878883407572E1   7.588454109697575E1  
                        
 3.300828828828828E10   -1.998379631394722E1   1.331551446366631E2  -3.264483245705726E1   6.604144164983628  -2.104614126438596E1  -8.984322059367116E1  -1.715768016512278E1   1.571851098247263E2  
                        -3.292340269304418E1   3.224973148659465E1  -2.157617685616978E1   1.375117472422359E2  -1.728830305723766E1   1.311085687840108E2  -3.783064573409979E1  -1.788479588245713E2  
                        -2.104118099474946E1  -8.313314943694601E1  -1.684523810761436E1   1.107242075435567E2  -1.621266579342075E1  -1.795769132185616E2  -3.327442688495649E1   5.325713161854817E1  
                        -1.730322253134328E1   1.786658743185061E2  -3.798705626254201E1   1.788285063131595E2  -3.349956268406807E1   6.996889491282997E1  -2.093079648860687E1   6.781932101877143E1  
                        
 3.307834834834835E10   -1.953484540257589E1   1.076938102223532E2  -3.203799703308148E1   1.552675715091018E2  -2.166583525739285E1  -1.345271867814906E2  -1.721290877018848E1  -5.219709674673980E1  
                        -3.209437945367822E1  -1.776525442072928E2  -2.269996019999653E1   1.448699488764885E2  -1.714596531116062E1  -7.612328918674743E1  -3.736834120504908E1   1.673190436734359E2  
                        -2.139953545186658E1  -1.285944088545173E2  -1.694018709255833E1  -9.774721252164736E1  -1.507197407843005E1   1.469762885114095E2  -3.367941824481279E1  -1.568355636799054E2  
                        -1.759226027311240E1  -2.869306446153590E1  -3.743082577247650E1   1.652479211357861E2  -3.392129584295394E1  -1.394281096850857E2  -2.063900609835223E1   7.286147316980835E1  
                        
 3.314840840840841E10   -1.825944539576765E1   8.660116961026459E1  -3.205160670303810E1  -6.089634042999425E1  -2.138994406886962E1  -1.760775431791062E2  -1.729114173714138E1   9.962696422956381E1  
                        -3.202500812531164E1  -3.278212953122317E1  -2.381926914389016E1   1.450115797379951E2  -1.688516748479558E1   7.513482986242359E1  -3.739667009398849E1   1.533979016286642E2  
                        -2.138935900667610E1  -1.723581728322305E2  -1.674195464732990E1   5.445588625966602E1  -1.342986745579797E1   1.165067359346216E2  -3.344858850579688E1  -5.683589288517043  
                        -1.753589514795089E1   1.242591162370889E2  -3.743832220352437E1   1.509053583225533E2  -3.373948877242403E1   1.393853886274579E1  -2.116249021549539E1   7.199313708067498E1  
                        
 3.321846846846846E10   -1.664643614434646E1   5.832826045191470E1  -3.254695081622611E1   8.970677225856439E1  -2.143950881974924E1   1.370426239535605E2  -1.731957361696615E1  -1.085834732657064E2  
                        -3.247186164028478E1   1.158593742399462E2  -2.454930675628948E1   1.306088428449176E2  -1.719043241850302E1  -1.327714944406881E2  -3.763505891891146E1   1.384778659829758E2  
                        -2.148798809248159E1   1.418337367448155E2  -1.697018243932358E1  -1.539435992492621E2  -1.484170433634057E1   9.766634750221397E1  -3.299632963613541E1   1.439467361658857E2  
                        -1.752122254631012E1  -8.393700623677468E1  -3.755996327381565E1   1.348091591571426E2  -3.327564905510193E1   1.649475261830186E2  -2.153801507450492E1   6.429805061877896E1  
                        
 3.328852852852853E10   -1.799362907212531E1   2.982636834811721E1  -3.238721391113899E1  -1.189469588737574E2  -2.163564299430377E1   9.330237137929326E1  -1.735279277701960E1   4.273276784904075E1  
                        -3.256280144532651E1  -9.219159382617410E1  -2.307220299343079E1   1.284791828902455E2  -1.706671234685611E1   2.101257465243747E1  -3.795224557338106E1   1.254982997843105E2  
                        -2.134361255883325E1   9.732340750340077E1  -1.717636331738855E1  -1.942365059001196  -1.576865937960841E1   6.020392825102665E1  -3.291288857498145E1  -7.029652413292025E1  
                        -1.747298663251356E1   6.860779986703766E1  -3.812730178715430E1   1.237323480696534E2  -3.336431458782136E1  -5.009458819000248E1  -2.050945679849512E1   5.730777191498842E1  
                        
 3.335858858858859E10   -1.910944136121826E1   1.835387244073154  -3.236625662077631E1   2.847574968629659E1  -2.144995457283229E1   4.767701690821463E1  -1.740955243122004E1  -1.656964055210036E2  
                        -3.222795220562129E1   5.626648780770852E1  -2.180107200956283E1   1.278704842380651E2  -1.669213285192910E1   1.713546506596850E2  -3.818168978994935E1   1.129844309704645E2  
                        -2.155555781365810E1   4.966848097216837E1  -1.690578134985461E1   1.494005317980886E2  -1.582302500875140E1   1.709459098342840E1  -3.363244899105029E1   7.952950131393151E1  
                        -1.743577304384045E1  -1.404885500395185E2  -3.831228255216017E1   1.121764055261672E2  -3.360285096080026E1   1.011635210628425E2  -2.075125921475296E1   6.201618159700821E1  
                        
 3.342864864864865E10   -1.951952270853089E1  -4.485644639365837E1  -3.292947811128783E1   1.771297390821135E2  -2.163398881095753E1   1.274675785057045  -1.757655912804246E1  -1.381749829658727E1  
                        -3.274567784449192E1  -1.556148370911513E2  -2.364030320826407E1   1.388315160723404E2  -1.698263110845453E1  -3.743149597149503E1  -3.815038366788865E1   1.022296385857723E2  
                        -2.168990831237359E1   5.747662003307068  -1.680864908872388E1  -6.033128242346562E1  -2.026240494733101E1  -3.630838786207702E1  -3.353665952239528E1  -1.254450396201005E2  
                        -1.750059097678019E1   1.129987620686903E1  -3.825308791998261E1   1.004220947487001E2  -3.364878187499236E1  -1.072301358410143E2  -2.220967884596540E1   5.906798792342188E1  
                        
 3.349870870870871E10   -2.024440388594790E1  -1.087990807975511E2  -3.290250812235992E1  -2.808992980280907E1  -2.169570944076919E1  -4.434583215261084E1  -1.746947030465678E1   1.377186062686685E2  
                        -3.285228987200926E1  -1.699611605142176  -2.448740722610220E1   1.025716324145282E2  -1.711665662454825E1   1.120787721796825E2  -3.811035916842489E1   9.029528401443268E1  
                        -2.152700771125414E1  -4.110223384856113E1  -1.703171096689425E1   8.950168557262616E1  -1.741813797936284E1  -1.012732666867589E2  -3.304096663505359E1   2.219635475511875E1  
                        -1.761937984348311E1   1.619791379790540E2  -3.810005897665405E1   8.794188246738393E1  -3.328104057232528E1   4.215626280607449E1  -2.105020200606646E1   4.750021939521522E1  
                        
 3.356876876876876E10   -1.865441974622941E1  -1.529667901020418E2  -3.224599187778410E1   1.219325912490226E2  -2.212021227736262E1  -9.325283407063766E1  -1.761867430361025E1  -7.209351897441410E1  
                        -3.226089189359223E1   1.471721938902425E2  -2.140484318537768E1   1.026773617527424E2  -1.708769795910841E1  -9.927007106098026E1  -3.820407933711885E1   7.793538598432654E1  
                        -2.203428690787452E1  -8.860411025851344E1  -1.724211198084774E1  -1.173109953753294E2  -1.399250987759043E1  -1.386795858871545E2  -3.377508342335936E1   1.688308742306043E2  
                        -1.778881748482246E1  -4.693644104929506E1  -3.823786680382047E1   7.402947611378077E1  -3.376934099031222E1  -1.716661227419442E2  -1.961784688469007E1   5.889771057577575E1  
                        
 3.363882882882883E10   -1.588853308104880E1   1.639913111970374E2  -3.234044744886949E1  -9.285459715745404E1  -2.244905873749654E1  -1.386743439197064E2  -1.771031694198173E1   8.103137100157920E1  
                        -3.263782644488212E1  -6.749237730871538E1  -2.204457817427658E1   1.240458655001899E2  -1.731477057818335E1   5.469187974056054E1  -3.821049543224869E1   6.504160768924940E1  
                        -2.236451949839636E1  -1.325419264386816E2  -1.703814012557951E1   3.344937954828116E1  -1.333255260448246E1   1.696426195213841E2  -3.389028196665349E1  -3.443429358481979E1  
                        -1.793984404960237E1   1.051166657223556E2  -3.816310586455114E1   6.183831911370957E1  -3.412616781047844E1  -1.598157167835307E1  -2.071915968756277E1   6.853248840701133E1  
                        
 3.370888888888889E10   -1.401735159435595E1   1.222135503107764E2  -3.264549162770780E1   5.738200042298757E1  -2.262255979197395E1   1.783164281957453E2  -1.771988350388248E1  -1.262500076508294E2  
                        -3.304057273588813E1   8.469592161462239E1  -2.833357395171101E1   9.624628885259988E1  -1.802341209367734E1  -1.530990774710588E2  -3.830640979402625E1   4.932374807686632E1  
                        -2.256516474407642E1  -1.762692621022441E2  -1.751994970248647E1  -1.751843522652984E2  -1.134130790530957E1   1.452254794882029E2  -3.300871223100797E1   1.137824039215262E2  
                        -1.807306006579007E1  -1.025452536729742E2  -3.836859392759020E1   4.733893415300323E1  -3.338172459476986E1   1.332532839449934E2  -2.129211709954367E1   5.643106154589916E1  
                        
 3.377894894894895E10   -1.332943321362407E1   9.339522806503015E1  -3.274542645385532E1  -1.513330430911771E2  -2.354008469155889E1   1.331989756229995E2  -1.782826830936941E1   2.510688523794745E1  
                        -3.308840120863807E1  -1.249943242519125E2  -2.382431541312580E1   8.645374298656681E1  -1.813667172516996E1   1.271821381605310  -3.886601577963582E1   3.723298192505626E1  
                        -2.302306650475967E1   1.386430134798951E2  -1.765910106371092E1  -2.019019342634938E1  -1.097666543819934E1   1.170592882887420E2  -3.378033400035103E1  -1.020351554396866E2  
                        -1.807142747800441E1   5.011899526191942E1  -3.868459740359576E1   3.509821446133385E1  -3.422330874909810E1  -8.079015170056842E1  -1.897826443241914E1   4.660615070248085E1  
                        
 3.384900900900901E10   -1.297441130207792E1   6.129104339312780E1  -3.282308010098699E1  -5.290595493289787  -2.338335075841651E1   9.329153546800843E1  -1.809413888236082E1   1.774868580742830E2  
                        -3.309335429780600E1   2.332399994351622E1  -2.445818911613542E1   1.036887117913552E2  -1.773832014829491E1   1.553583829831536E2  -3.892328805120339E1   2.442579904715267E1  
                        -2.306783506786975E1   9.701797873441406E1  -1.736058737608199E1   1.318393886130139E2  -1.135398734307392E1   7.663616726522176E1  -3.450491121471034E1   5.396376867562229E1  
                        -1.824091974098309E1  -1.568861243863645E2  -3.885433044952438E1   2.218812613112216E1  -3.466950050935228E1   7.660542898339708E1  -1.813907872534374E1   5.350054915157418E1  
                        
 3.391906906906907E10   -1.328401850173641E1   2.146851764823911E1  -3.361886186375091E1   1.432470171388271E2  -2.312552427026455E1   4.637530609601024E1  -1.795017886866963E1  -2.991687048480323E1  
                        -3.393795336175453E1   1.707560002013566E2  -3.166497807136634E1   8.798666058317983E1  -1.829560387502192E1  -5.440305214040806E1  -3.927656772055502E1   1.255070748586444E1  
                        -2.306594592708121E1   5.248548643602248E1  -1.746947039067553E1  -7.714199524994862E1  -1.101634480331788E1   5.278424762262661E1  -3.358705948884906E1  -1.536012618651877E2  
                        -1.817513512565314E1  -4.523493383304463  -3.939591267526008E1   8.551820176537085  -3.441977317355876E1  -1.307733121247984E2  -1.933938964891378E1   4.863740925112025E1  
                        
 3.398912912912913E10   -1.476602536060137E1  -1.966503152362148E1  -3.430139624714093E1  -5.956258102652620E1  -2.307491743219701E1   5.508573634674547  -1.788881217558816E1   1.219737171790932E2  
                        -3.426427930934005E1  -3.330766802685920E1  -2.856699251969986E1   5.942449337273400E1  -1.751730772156802E1   9.921874117505961E1  -3.944697774674201E1   2.500067585729235  
                        -2.297155170259146E1   8.493977667151674  -1.761717660392657E1   7.589970351348777E1  -1.241546238711145E1   1.002669139481149E1  -3.382817352975682E1  -7.079044158240344  
                        -1.788565128925862E1   1.469807051877175E2  -3.936894404719127E1  -2.722533089109303E-1  -3.442634140090623E1   1.519804424766702E1  -1.995432196221281E1   2.863839974032378E1  
                        
 3.405918918918919E10   -1.475544661401769E1  -6.848094255153173E1  -3.362097922180998E1   9.141322118070394E1  -2.272259338442818E1  -4.488379397090049E1  -1.797360136796969E1  -8.810845052232409E1  
                        -3.396467067242703E1   1.169189504177473E2  -2.543950217943048E1   8.787590859556546E1  -1.747364548185528E1  -1.096196135789367E2  -3.948345776171558E1  -8.087152113350538  
                        -2.289311262589678E1  -3.766714004542875E1  -1.737920546369166E1  -1.321240226542839E2  -1.361571892376804E1  -5.001696748356304E1  -3.470317274693490E1   1.460993204400854E2  
                        -1.792131996586178E1  -6.345766175357202E1  -3.968085526184940E1  -1.150196876420954E1  -3.417617802007850E1   1.632022280096772E2  -1.836665782051146E1   2.931474390548386E1  
                        
 3.412924924924925E10   -1.404396031343100E1  -1.198506080006740E2  -3.392904919237020E1  -1.217063481307148E2  -2.331999796766320E1  -9.083308526977194E1  -1.808589460796583E1   6.484712350390883E1  
                        -3.415182351332978E1  -9.519965651132617E1  -2.980833107787950E1   9.443532158382382E1  -1.737737312236803E1   4.098903677843499E1  -3.942038291084307E1  -2.076351289659740E1  
                        -2.302957127346517E1  -8.371961371757642E1  -1.732316916122741E1   1.651943472001980E1  -1.431783138087232E1  -9.352672988593290E1  -3.441753155983513E1  -6.130325737781505E1  
                        -1.832263984126903E1   8.900933406265007E1  -3.945895798133225E1  -2.380127274996996E1  -3.428335817231488E1  -4.324005905933532E1  -1.841417504518286E1   4.528291813804162E1  
                        
 3.419930930930931E10   -1.348990378958460E1  -1.717704203353074E2  -3.451057766360833E1   2.919475830312223E1  -2.328629570714466E1  -1.344105683253111E2  -1.799169583543358E1  -1.434454683718902E2  
                        -3.458417434469530E1   5.765346721645521E1  -3.015185864246671E1   8.679868570019160E1  -1.749317331143775E1  -1.702327847993908E2  -3.959972277945332E1  -3.335645609404678E1  
                        -2.334841360276236E1  -1.291281912484935E2  -1.759441654562447E1   1.681038721336076E2  -1.305908528141672E1  -1.566184829274759E2  -3.430945369911681E1   8.756370760455967E1  
                        -1.820122263159987E1  -1.192427458179060E2  -3.949640769304420E1  -3.565394408951017E1  -3.463223407801998E1   1.058179155162287E2  -2.070476693117875E1   3.665060207027981E1  
                        
 3.426936936936937E10   -1.244702941502914E1   1.490019984998923E2  -3.417802067705576E1  -1.756545709726797E2  -2.396614122883895E1   1.767156218139608E2  -1.817954081576982E1   8.842009665454768  
                        -3.429784712621714E1  -1.510587438180887E2  -3.015993965246552E1   7.540986623899822E1  -1.859192563172491E1  -1.733445143545344E1  -3.961656486181730E1  -4.732555506716732E1  
                        -2.379737354709149E1  -1.753145000806063E2  -1.785029808691555E1  -3.737511275521697E1  -1.063618892686533E1   1.677254525008671E2  -3.462161060145559E1  -1.241964971591570E2  
                        -1.850053289692683E1   2.986538748890807E1  -3.960840039015169E1  -5.064738727420531E1  -3.489121436530367E1  -1.087805298897518E2  -1.980827887245096E1   1.380275939616619E1  
                        
 3.433942942942943E10   -1.140348272838006E1   1.133930622126013E2  -3.410456827191113E1  -2.806366844200091E1  -2.490977101743725E1   1.388495968459045E2  -1.856977453152962E1   1.610486144508877E2  
                        -3.457513378692852E1  -3.829306455251446  -2.953594364211747E1   7.476978821747967E1  -1.827718818418241E1   1.370024837565232E2  -4.002223154327018E1  -6.013110527519445E1  
                        -2.440035674166026E1   1.432691306041394E2  -1.767064690283282E1   1.138031516037384E2  -1.139193157804085E1   1.296879113804469E2  -3.512340041688115E1   2.894349341204308E1  
                        -1.888509353674809E1  -1.751838032149836E2  -4.019219548111639E1  -6.452059582521545E1  -3.561786168178808E1   4.779612722211702E1  -1.754409574816809E1   1.811604963469117E1  
                        
 3.440948948948949E10   -1.114493176515031E1   7.537072287124258E1  -3.487366971295358E1   1.207089903527525E2  -2.478296764347133E1   9.686484870331643E1  -1.864205717249099E1  -4.447320037547961E1  
                        -3.524646636672164E1   1.478690934877854E2  -3.023237078325017E1   7.829258261796716E1  -1.816075134786372E1  -7.201480753329042E1  -4.022849256602299E1  -7.144573745350647E1  
                        -2.446408341987347E1   1.014828079809802E2  -1.787467872884840E1  -9.368811671333484E1  -1.001488961773718E1   9.256456038048407E1  -3.489595820946715E1  -1.780360408809578E2  
                        -1.862567580880014E1  -2.156318359854634E1  -4.051585564883571E1  -7.548806814346997E1  -3.543601320874986E1  -1.612302754090796E2  -1.902358534979964E1   2.450703666212985E1  
                        
 3.447954954954955E10   -1.162957861275919E1   4.301669272365329E1  -3.512799476592989E1  -8.713965413792388E1  -2.475431781255316E1   5.386251471939148E1  -1.834906725101256E1   1.074158545542857E2  
                        -3.518135487139852E1  -5.937778715561473E1  -3.667613448280089E1   1.292769927288563E2  -1.884314346371766E1   8.116363191939536E1  -4.075279136038207E1  -8.338438177069726E1  
                        -2.451401624334502E1   5.719182308770713E1  -1.809351384754434E1   5.929735444506763E1  -9.540459986306630   6.622922968553364E1  -3.492018434347598E1  -2.968077176487078E1  
                        -1.867001321179859E1   1.292453988714091E2  -4.072827355982307E1  -8.559805195918521E1  -3.542659367142338E1  -1.216627154727834E1  -2.141250905814094E1   4.845345068127950  
                        
 3.454960960960960E10   -1.144990337308437E1   2.499934862792494  -3.522679831897272E1   6.351197204283920E1  -2.450819706717512E1   1.166059704060970E1  -1.853115500091885E1  -1.000245794192858E2  
                        -3.541471676775372E1   9.131013259349614E1  -3.412906152449371E1   6.181606049600160E1  -1.788569231118338E1  -1.219522593564098E2  -4.110443420908824E1  -9.212150272192142E1  
                        -2.436664753675835E1   1.527502000331456E1  -1.777910010338385E1  -1.463995642271473E2  -1.141330237040081E1   2.667220548674565E1  -3.595948536763473E1   1.215787935197534E2  
                        -1.856946422123025E1  -7.652313944363114E1  -4.103735071645205E1  -9.485484989067940E1  -3.616119282090106E1   1.413889862338909E2  -2.010371400261405E1  -6.410346726150046  
                        
 3.461966966966967E10   -1.170196838509987E1  -4.406276085366957E1  -3.586083044034758E1  -1.473486361809547E2  -2.410380808692661E1  -3.312385632256424E1  -1.838763386314874E1   5.301208782383897E1  
                        -3.563933156695330E1  -1.194067548244946E2  -2.484245888562585E1   9.753651334563551E1  -1.757093883166630E1   2.600308435419327E1  -4.110836085253931E1  -1.024032203252367E2  
                        -2.393063122504674E1  -2.951719474905374E1  -1.749324831341342E1   3.425536071705717  -1.115148100256090E1  -1.360882138312111E1  -3.589571028832580E1  -8.165902048986928E1  
                        -1.829200305685659E1   7.416449275841494E1  -4.072613466351958E1  -1.064198946569403E2  -3.578176244425958E1  -6.489433305910610E1  -1.997902409451003E1   1.040668880413888E1  
                        
 3.468972972972973E10   -1.276192309336315E1  -8.965039804286593E1  -3.649597175183501E1   9.309091363717363  -2.378931349656799E1  -8.033274146829882E1  -1.816914657627462E1  -1.557791328503734E2  
                        -3.637633462960216E1   3.407466930517324E1  -2.621279026448748E1   1.144966214903184E2  -1.787182149657569E1   1.756318834030424E2  -4.116200251025204E1  -1.140039144416129E2  
                        -2.399094545509978E1  -7.638022619551533E1  -1.775601760867763E1   1.532851288038110E2  -1.275513694550977E1  -5.355842159559154E1  -3.531268268355720E1   6.567808110068616E1  
                        -1.829530006269902E1  -1.347676854750887E2  -4.104422236845580E1  -1.181282291524505E2  -3.527817063630823E1   8.341023969992561E1  -2.134127752574135E1   1.065543484432897E1  
                        
 3.475978978978979E10   -1.286019771949829E1  -1.402300166772109E2  -3.610679076830580E1   1.640012186862479E2  -2.432455076720315E1  -1.264799674751559E2  -1.820869239549831E1  -5.467933801275114  
                        -3.601718763627800E1  -1.716567007868498E2  -3.463237226437963E1   1.118145695092482E2  -1.765878758068014E1  -3.089228909661927E1  -4.103679893091250E1  -1.254253496236091E2  
                        -2.432503537934873E1  -1.217141202749990E2  -1.764584692970312E1  -5.219969130624804E1  -1.319315411962403E1  -1.261358835450316E2  -3.618253455017380E1  -1.474140549043337E2  
                        -1.844560207025134E1   1.581384501485037E1  -4.106961697411859E1  -1.274349124188164E2  -3.634471697542787E1  -1.292523674650208E2  -2.281099835492695E1  -1.349503442931561E1  
                        
 3.482984984984985E10   -1.164234260876422E1   1.717705039408736E2  -3.581486711605635E1  -4.810695140023153E1  -2.426156404315724E1  -1.697725795937463E2  -1.855621932838963E1   1.483554000461449E2  
                        -3.614085519869035E1  -2.491804746478045E1  -2.639127282482723E1   9.261017861751641E1  -1.779376163696768E1   1.176214943654856E2  -4.101509777636801E1  -1.385668772312207E2  
                        -2.448394023056494E1  -1.662254467556666E2  -1.758613055626870E1   9.746764235778755E1  -1.302079145938488E1  -1.640285324786502E2  -3.623955086270152E1   1.024650795738214E1  
                        -1.886193134739311E1   1.683913700054124E2  -4.105285589666142E1  -1.403290234901367E2  -3.670309939303722E1   2.652744311303464E1  -2.038998960668144E1  -2.106049015677484E1  
                        
 3.489990990990990E10   -1.127820336703526E1   1.293294034563957E2  -3.658596374495100E1   1.016642974952925E2  -2.497289455388382E1   1.437001425911116E2  -1.848860146621611E1  -5.998045652551211E1  
                        -3.699004183461209E1   1.271137996785999E2  -2.282942139867688E1   1.095603870422978E2  -1.834392651481347E1  -9.203794937110037E1  -4.119594477605968E1  -1.505094809564094E2  
                        -2.489601470901155E1   1.497288015094070E2  -1.785085384597678E1  -1.117116482112470E2  -1.226887604074779E1   1.484380149005223E2  -3.580429854588912E1   1.575328012944427E2  
                        -1.862479186992615E1  -3.747519059028716E1  -4.130473991606909E1  -1.525175583648895E2  -3.601236963031152E1   1.745164553543829E2  -2.095737143249504E1  -1.423316223411661E1  
                        
 3.496996996996997E10   -1.118739617682018E1   9.476302385548128E1  -3.655199588068784E1  -1.054336590285477E2  -2.523899460189319E1   1.052888475258324E2  -1.832736909579904E1   9.072716152831387E1  
                        -3.674354963328094E1  -7.906402324681110E1  -2.742881662707431E1   1.070117550412544E2  -1.842459819698692E1   6.146603865174947E1  -4.145969982747570E1  -1.619944804045323E2  
                        -2.504679249753257E1   1.080940594879276E2  -1.787898668767747E1   4.307689954855656E1  -1.029603284187034E1   1.071982897396036E2  -3.663171016539142E1  -5.290008699029618E1  
                        -1.877886607102448E1   1.137281992518358E2  -4.138187556009729E1  -1.639005647657529E2  -3.729404138207462E1  -3.630286623782434E1  -2.676994026156922E1  -1.269702748686265E-1  
                        
 3.504003003003003E10   -1.082795562761435E1   5.782203824994530E1  -3.666072959434658E1   4.325531015930013E1  -2.515808420514728E1   5.916692454967615E1  -1.866183969578902E1  -1.175992974722040E2  
                        -3.666782941039727E1   6.892307984293565E1  -2.614411054070066E1   9.058296794653955E1  -1.827036479523520E1  -1.446001561927652E2  -4.169188577295989E1  -1.726310888225398E2  
                        -2.499358164642416E1   6.646019222135455E1  -1.783824453179184E1  -1.660608218626689E2  -1.138064167181195E1   7.590756313983684E1  -3.701718015126089E1   1.020591350082385E2  
                        -1.890103135556445E1  -9.166946147566760E1  -4.158415439547740E1  -1.762892477172531E2  -3.767670033738204E1   1.221409763186588E2  -2.593909437015011E1  -4.263695118042374E1  
                        
 3.511009009009009E10   -1.129928885685562E1   1.847184823158468E1  -3.759325933608436E1  -1.665849955046399E2  -2.530900881358459E1   1.679107682241236E1  -1.844921005734524E1   3.682270939318182E1  
                        -3.774893197093843E1  -1.393902316563336E2  -2.330831382275887E1   8.988696974206131E1  -1.846722882119917E1   9.302718824994686  -4.175875522041494E1   1.785924323336795E2  
                        -2.496426263327267E1   2.458059674726161E1  -1.773404213623986E1  -1.233161904498263E1  -1.101209342952569E1   4.238552531670058E1  -3.691328167593263E1  -1.048355756614624E2  
                        -1.864759112924958E1   6.167979373200630E1  -4.183641397063787E1   1.752990799184869E2  -3.769542247165418E1  -8.566154264468449E1  -2.411620910507688E1  -3.041504751149762E1  
                        
 3.518015015015015E10   -1.223654467917210E1  -2.060815754381402E1  -3.806788962710592E1  -1.096209576350351E1  -2.454245048591292E1  -2.640454416255984E1  -1.819170753942714E1  -1.725083915376756E2  
                        -3.797182553682994E1   1.589725072794119E1  -2.318990682716440E1   7.988237697183733E1  -1.842919127143847E1   1.631956502437761E2  -4.171167673641985E1   1.670567203399393E2  
                        -2.462896223652468E1  -1.948937113919905E1  -1.775818916500931E1   1.397198068836806E2  -1.108220440627343E1   8.124602805845141  -3.703824826567644E1   4.416227679828079E1  
                        -1.844316219039327E1  -1.469668130253297E2  -4.189540523920174E1   1.641879538428878E2  -3.754125618800364E1   6.538740125657583E1  -2.646473415584823E1   8.650070955653332  
                        
 3.525021021021021E10   -1.224799479933403E1  -6.583852601830193E1  -3.771035802876496E1   1.399871416407561E2  -2.484724568550284E1  -7.040743065482543E1  -1.835216942520937E1  -2.007727291794803E1  
                        -3.790957958796571E1   1.676978044147645E2  -2.639913471141324E1   7.011575965570971E1  -1.779794216836467E1  -4.482449814378458E1  -4.170890213710723E1   1.571025511655987E2  
                        -2.446713105661860E1  -6.343272656972398E1  -1.755747239817629E1  -6.841080940509873E1  -1.385818231464568E1  -3.474551276039930E1  -3.778487678614071E1  -1.636990112969747E2  
                        -1.837174497181631E1   4.154628041916795  -4.191165559279434E1   1.537823602671946E2  -3.788649222337093E1  -1.466084171721025E2  -3.135061357665799E1   1.134665061390148E1  
                        
 3.532027027027026E10   -1.291490166180599E1  -1.159977182012379E2  -3.829112932573945E1  -6.956967129980748E1  -2.464653689861857E1  -1.155937927156502E2  -1.823864672844267E1   1.326034083711311E2  
                        -3.840503549265702E1  -4.148242238593039E1  -2.563051246474470E1   6.662755766731755E1  -1.770909067811806E1   1.049177889416120E2  -4.154316322923317E1   1.474345243928254E2  
                        -2.433738319369104E1  -1.088283306816264E2  -1.755810744244943E1   8.060748908360030E1  -1.445560646625745E1  -8.830548146193897E1  -3.799191521382105E1  -8.767009064767025  
                        -1.840805529332120E1   1.563672150595765E2  -4.157763441338692E1   1.412514599585026E2  -3.778638103259271E1   7.701061270754213  -3.137187131363755E1  -2.012058729409676E1  
                        
 3.539033033033033E10   -1.310148483425665E1  -1.606681007391150E2  -3.851886203497432E1   8.802790105539690E1  -2.448809086178418E1  -1.607431984205912E2  -1.813687333667397E1  -7.672552066844271E1  
                        -3.887828984470657E1   1.149539943857909E2  -2.383039885424427E1   6.330226415621733E1  -1.738652885301955E1  -1.037938868963733E2  -4.149899178844204E1   1.359478441797391E2  
                        -2.444817942768250E1  -1.557117318519304E2  -1.749762705483797E1  -1.288863157949342E2  -1.586064748538217E1  -1.451912496665468E2  -3.759193573720422E1   1.404710837284981E2  
                        -1.833147847649921E1  -5.192825550212593E1  -4.152216548998385E1   1.298601945259444E2  -3.770794472203348E1   1.556560496282604E2  -3.174717220520522E1  -1.701085222749445E1  
                        
 3.546039039039039E10   -1.246515772848747E1   1.574708848022016E2  -3.799342632478040E1  -1.217899750473874E2  -2.464338254096269E1   1.536164942548056E2  -1.817156678704582E1   7.371739759779386E1  
                        -3.830564125811007E1  -9.410029927178871E1  -2.411438635358342E1   5.562460093942552E1  -1.824271689199514E1   4.431321030262682E1  -4.174353600679104E1   1.226851167907408E2  
                        -2.462474267026655E1   1.584080443095611E2  -1.767699093259640E1   2.282810476848602E1  -1.446672609354628E1   1.620532932106107E2  -3.800809658244391E1  -7.264190036684488E1  
                        -1.842939727867632E1   9.858124585196704E1  -4.153452019431973E1   1.175416657606470E2  -3.843553195152911E1  -5.167577110356508E1  -3.684620731789130E1   1.796270318397643E1  
                        
 3.553045045045045E10   -1.251380853271928E1   1.132087449390512E2  -3.822698096588603E1   2.749069395459174E1  -2.480702378594929E1   1.089078505741959E2  -1.828320610286386E1  -1.337560394257181E2  
                        -3.848628597355302E1   5.418013673582622E1  -2.613822544033387E1   6.843892674535042E1  -1.797440413795052E1  -1.582115370684390E2  -4.173184957288776E1   1.107858612656711E2  
                        -2.499828249196251E1   1.140816234524554E2  -1.759432007334373E1   1.742653183314180E2  -1.348011947198838E1   1.202974611574132E2  -3.883273737399992E1   7.955679316260326E1  
                        -1.864955996295856E1  -1.087997502852640E2  -4.162947902232637E1   1.073015541473518E2  -3.927192720506649E1   1.028981680271152E2  -3.746554702955102E1   5.529561976041012E1  
                        
 3.560051051051051E10   -1.247735765490731E1   7.060737344813836E1  -3.875205628974818E1   1.775019706361413E2  -2.497140683765256E1   6.989874583642789E1  -1.832210957955806E1   1.849692527682211E1  
                        -3.925462175186786E1  -1.537968934322401E2  -2.494647170610674E1   3.711820560990383E1  -1.814731336366923E1  -7.547765588107626  -4.164649601836530E1   9.870045652116723E1  
                        -2.483356703388709E1   7.091063750526439E1  -1.752728230825217E1  -3.569979511119079E1  -1.291277630520108E1   8.600516013838742E1  -3.859931009387557E1  -1.260277783927325E2  
                        -1.861691979548951E1   4.577261292710616E1  -4.183749268228030E1   9.574948097566771E1  -3.907555413257087E1  -9.917242667835994E1  -3.735446313818517E1   8.781502647130421E1  
                        
 3.567057057057056E10   -1.277593127788780E1   3.448834684705712E1  -3.898206412147867E1  -2.956449917404375E1  -2.495485310216494E1   2.745330977397930E1  -1.810192351597402E1   1.705930863171923E2  
                        -3.950252179429916E1   3.101721810855473E-1  -2.292419420941265E1   4.643746645244613E1  -1.855344421095610E1   1.433274784599770E2  -4.196520418432394E1   8.761265377505600E1  
                        -2.488806439162407E1   2.672493332810612E1  -1.776904504367311E1   1.164437362269592E2  -1.198248659271324E1   4.792913843217468E1  -3.899781733293608E1   2.096022690340361E1  
                        -1.843365841871727E1  -1.639586295438828E2  -4.196257648172000E1   8.594131940031460E1  -3.898384192374773E1   4.576324339993617E1  -3.216131622136252E1   7.806069170907031E1  
                        
 3.574063063063063E10   -1.234383453690539E1  -5.475949901729168  -3.953086860197101E1   1.208988110071806E2  -2.479898781888433E1  -1.533057357181490E1  -1.817421060679253E1  -3.763104060772311E1  
                        -3.989528390781047E1   1.508068813827730E2  -2.745044779414359E1   5.322726059814638E1  -1.784541729781294E1  -6.152721516122475E1  -4.191182048923566E1   7.807842320982617E1  
                        -2.477183237639568E1  -1.549567855450783E1  -1.774955955518880E1  -8.980929825577367E1  -1.272839318939911E1   1.451565852701942E1  -4.032692700657698E1   1.766479191444368E2  
                        -1.850118647975396E1  -1.041183561137216E1  -4.183984829359088E1   7.545354647190855E1  -4.006349748567007E1  -1.574844639161290E2  -2.929509303288130E1   7.956306539222793E1  
                        
 3.581069069069069E10   -1.284977538496765E1  -4.574456150327460E1  -4.045699439997857E1  -8.522212390403794E1  -2.447804803073066E1  -6.015317814408612E1  -1.812941963202145E1   1.149117793213518E2  
                        -4.037407094800921E1  -5.579975687231325E1  -2.786160135250922E1   1.891168871449487E1  -1.743485704225931E1   8.972449314506653E1  -4.167177348061851E1   6.539225518403632E1  
                        -2.406723939568651E1  -5.790767883947770E1  -1.761036957408709E1   6.237544541502064E1  -1.425048493666911E1  -1.414158804353287E1  -3.975676615116341E1  -2.454675489557179E1  
                        -1.813244224858798E1   1.413067895972010E2  -4.180884398877737E1   6.299114605133234E1  -3.958773107477714E1  -1.418597268778504  -3.084388140575868E1   8.873759738870604E1  
                        
 3.588075075075075E10   -1.419386490285473E1  -9.010339147409553E1  -4.077859384041521E1   7.339824038270230E1  -2.421142257971446E1  -1.080079247808478E2  -1.786054264785390E1  -9.333394616143720E1  
                        -4.092208611678630E1   9.965519259297783E1  -2.401615678719797E1   2.354720852035789E1  -1.732477843744641E1  -1.212118731102989E2  -4.185189256166390E1   5.669617647065835E1  
                        -2.409025602346291E1  -1.042159653819968E2  -1.753818694966158E1  -1.455443972228606E2  -1.505240747068509E1  -6.160689967271583E1  -3.994031842171043E1   1.219858831530544E2  
                        -1.805584422818804E1  -6.902251960700271E1  -4.189721355517561E1   5.252062113025340E1  -3.963892317733387E1   1.423949905069607E2  -2.764665325450502E1   1.009967549769910E2  
                        
 3.595081081081081E10   -1.404560872619503E1  -1.372127244919856E2  -4.017474671739618E1  -1.320668608743110E2  -2.430142074376217E1  -1.549376059356456E2  -1.811520288020549E1   5.837079083890419E1  
                        -4.027829191879299E1  -1.043421289437511E2  -2.711508367804411E1   3.704452275375076E1  -1.750539368755782E1   2.963399057794522E1  -4.131998536291254E1   4.433146021129341E1  
                        -2.410192839198461E1  -1.469121110035385E2  -1.731374526793931E1   6.698113328441854  -1.940079173910043E1  -9.539890653808595E1  -4.064065752713125E1  -8.155022885129426E1  
                        -1.815280058690794E1   8.182951581979920E1  -4.162979800679508E1   4.167502026273629E1  -4.099788696229156E1  -5.819426522437144E1  -2.455552189161944E1   1.046646187452793E2  
                        
 3.602087087087087E10   -1.455737271963974E1   1.778490289436388E2  -4.064710696927612E1   2.005649062183671E1  -2.385162160362524E1   1.669579243991212E2  -1.804950642334238E1  -1.490976123720440E2  
                        -4.037412452473338E1   4.405656511053470E1  -2.979923110469796E1   1.289315201140083E1  -1.716974083094345E1  -1.798670641924070E2  -4.156011501313625E1   2.973784045261619E1  
                        -2.388318137834657E1   1.626925996877451E2  -1.712697168225722E1   1.542853994536771E2  -1.970332613362270E1  -1.721384847811677E2  -4.031039629723738E1   7.096835741882451E1  
                        -1.803469445731258E1  -1.274168199138763E2  -4.147105348294758E1   2.874271674574074E1  -4.010190992274669E1   9.689199292009458E1  -2.750699106912858E1   9.937836919402122E1  
                        
 3.609093093093093E10   -1.528966096254435E1   1.367405176085788E2  -4.063842663819239E1   1.768362263146555E2  -2.410620676641866E1   1.196034983080223E2  -1.803010804453146E1   1.984168678895633  
                        -4.079434873052620E1  -1.615661217561829E2  -2.661892199677475E1   4.494192731497918  -1.751623119022929E1  -2.876348688488161E1  -4.137864458132096E1   1.722840107749088E1  
                        -2.406972645871316E1   1.175416916709162E2  -1.728058336277264E1  -5.284486133835118E1  -1.821045700735667E1   1.454248196039059E2  -4.033919826679670E1  -1.391656211003100E2  
                        -1.801325528178915E1   2.406876394299135E1  -4.139009933604786E1   1.825803630302738E1  -4.077670866007963E1  -1.156234615225593E2  -2.912483084733819E1   6.263453807032416E1  
                        
 3.616099099099099E10   -1.515299083453523E1   9.490429921412274E1  -4.003052902033456E1  -3.463770341591283E1  -2.418787907587909E1   7.738242549840102E1  -1.786248118477008E1   1.531926287764541E2  
                        -4.010884627865384E1  -1.044503502710186E1  -3.186232150265197E1   2.619615713445624E1  -1.762613205861464E1   1.241489315154257E2  -4.140724956266774E1   5.141329446202932  
                        -2.405995819994683E1   7.319037026244664E1  -1.730664420992201E1   9.823740023371833E1  -1.847989238678788E1   9.815720487712021E1  -4.079209136997431E1   1.593536663325710E1  
                        -1.809087265903109E1   1.756831553829595E2  -4.150132184686851E1   6.060969629768381  -4.138971585529764E1   4.199780814050114E1  -2.278870549282174E1   7.691753923674222E1  
                        
 3.623105105105105E10   -1.516591255440909E1   4.911862254243892E1  -4.099976718471683E1   1.165647272020845E2  -2.392825776328120E1   3.422734711319517E1  -1.811826794516389E1  -5.485582003333290E1  
                        -4.088885454800619E1   1.383857655295247E2  -3.374986538717051E1   1.323291717734443E1  -1.767051099620942E1  -8.338180218944284E1  -4.154229710776374E1  -5.318595453046930  
                        -2.405754388873886E1   2.921719691852523E1  -1.731189957495967E1  -1.109108246221287E2  -1.616862739979417E1   5.571550841106852E1  -4.125400053902109E1   1.709379183692493E2  
                        -1.799801179278783E1  -3.282852304516083E1  -4.169888740682303E1  -5.635043024455141  -4.178914127938200E1  -1.634713894824728E2  -2.623361361833345E1   1.053196862118852E2  
                        
 3.630111111111111E10   -1.553856379093489E1   1.535050698114899E1  -4.180075346898766E1  -9.027721712607968E1  -2.401350065835792E1  -1.196348833488418E1  -1.804754161437965E1   9.809166322743658E1  
                        -4.164571208744965E1  -6.641367818479169E1  -3.484671255013501E1  -1.034813162808953E1  -1.762184869607214E1   6.894286518439694E1  -4.169377959395881E1  -1.761472057752453E1  
                        -2.389741909746094E1  -1.471065548189133E1  -1.728862701363409E1   4.092687061265306E1  -1.568580983463921E1   3.207153903699211E1  -4.149189468111759E1  -3.478538002681709E1  
                        -1.800608877190983E1   1.196246320211161E2  -4.168336882525465E1  -1.675684951170963E1  -4.150792947660740E1  -1.002106631147257E1  -3.217700818968829E1   1.367219522300719E2  
                        
 3.637117117117117E10   -1.548444072990453E1  -1.833289261546341E1  -4.208148556037022E1   6.685789374878640E1  -2.382709745272485E1  -5.542251349734334E1  -1.800083254111448E1  -1.113808587736326E2  
                        -4.194367132794319E1   8.838082679643111E1  -4.029386542367571E1  -5.718329520956599E-1  -1.764916398090636E1  -1.396453349327438E2  -4.152274986428338E1  -2.769457573174002E1  
                        -2.387774230175753E1  -6.015933066330459E1  -1.720811476619343E1  -1.676762380776945E2  -1.578902925443606E1  -4.464436743389433E-1  -4.192160931354508E1   1.181898401475560E2  
                        -1.797418863423551E1  -8.849432766306923E1  -4.174430306993469E1  -2.858231889249186E1  -4.154397574648582E1   1.429756529475483E2  -3.054452065263658E1   7.574668234932246E1  
                        
 3.644123123123123E10   -1.638880047428253E1  -6.190766918713009E1  -4.218308669179294E1  -1.382330454760515E2  -2.378116871009401E1  -9.893037025468374E1  -1.807384461701814E1   4.054623964210747E1  
                        -4.221471796951550E1  -1.173809214593269E2  -3.983960118823426E1   1.934314909416294E1  -1.733024580018801E1   1.130763099665714E1  -4.162900527610864E1  -3.982936193211378E1  
                        -2.366198003807001E1  -1.047018509076047E2  -1.728023007439395E1  -1.658925342289929E1  -1.591359307559500E1  -3.064662576848668E1  -4.260654237065853E1  -8.679579150309770E1  
                        -1.781801312968049E1   6.266981203589943E1  -4.146032597235903E1  -3.835148944099460E1  -4.200021799064594E1  -5.931548279160773E1  -2.451389224884562E1   9.172878366266481E1  
                        
 3.651129129129129E10   -1.705644463058461E1  -1.011741535321194E2  -4.260327939823485E1   2.004713896640510E1  -2.341973116734096E1  -1.458545592761192E2  -1.798372040600768E1  -1.681907674836836E2  
                        -4.251387793416718E1   4.093092391570215E1  -3.921749111837221E1   6.716372390495079E1  -1.727494505453765E1   1.625425019603971E2  -4.146550793648319E1  -5.192032470092469E1  
                        -2.354902009219893E1  -1.493624964652742E2  -1.726240642377874E1   1.356561247271515E2  -1.722802602317931E1  -5.178944049865383E1  -4.195535173959620E1   7.125085473609315E1  
                        -1.775184321682806E1  -1.464828243863518E2  -4.149004242286726E1  -5.242124465078938E1  -4.189844392979975E1   9.775529353926146E1  -2.330228674443745E1   1.141926554265530E2  
                        
 3.658135135135135E10   -1.795948831047693E1  -1.378756861839096E2  -4.192072354495139E1   1.782898766704323E2  -2.364317579058658E1   1.692114350804122E2  -1.789258129502464E1  -1.622656273950716E1  
                        -4.177002217018359E1  -1.591563663917835E2  -4.421889737564820E1   1.156519798550524E2  -1.740129977354932E1  -4.717138854948482E1  -4.141332914178844E1  -6.263928728496759E1  
                        -2.352489959064003E1   1.644790899805806E2  -1.720706204955870E1  -7.379490354903911E1  -1.999095729593451E1  -9.962531848751591E1  -4.112283528623692E1  -1.359069603709536E2  
                        -1.786419537766249E1   5.296926089879952  -4.138531638961884E1  -6.290125353856489E1  -4.133438488799253E1  -1.103508887059866E2  -2.828536589184427E1   1.153568339958020E2  
                        
 3.665141141141141E10   -1.779865824381492E1   1.773183289908918E2  -4.091907658363154E1  -3.074816961650945E1  -2.355741071219004E1   1.254037081518812E2  -1.797219390905680E1   1.347000231359019E2  
                        -4.118172263019959E1  -9.821906106795334  -4.182700765600565E1  -4.753049495265108E1  -1.744805225482627E1   1.034336834225646E2  -4.152869339345885E1  -7.582723074697952E1  
                        -2.362630070477426E1   1.192422729669364E2  -1.723184732530657E1   7.768892553411848E1  -2.135739253660707E1  -1.367717050603568E2  -4.121286952804201E1   1.568238978608296E1  
                        -1.785612916790248E1   1.560279293150098E2  -4.148943304231523E1  -7.548554742485545E1  -4.138867545412621E1   4.105062021453302E1  -3.205884919048181E1   8.999785654582215E1  
                        
 3.672147147147147E10   -1.880366302658232E1   1.311432574543653E2  -4.087610873721357E1   1.188557840227263E2  -2.347428817393179E1   8.025364828411070E1  -1.797851126698460E1  -7.410834003960557E1  
                        -4.145548113619389E1   1.409828266321495E2  -3.223705674392527E1   7.920007058716577E1  -1.738588970213174E1  -1.038627546973288E2  -4.131278374338549E1  -8.658266920447788E1  
                        -2.353770996116824E1   7.406374184484727E1  -1.726310035933473E1  -1.315903100119907E2  -2.414854878805516E1  -1.621974365905811E2  -4.111898123668378E1   1.758731195435037E2  
                        -1.792175833781479E1  -5.317935549782629E1  -4.141829789538124E1  -8.639989476604860E1  -4.114043956974263E1  -1.586763314206164E2  -2.545791835044950E1   8.068420373229110E1  
                        
 3.679153153153153E10   -1.884127333114036E1   8.834695502021889E1  -4.102774496875962E1  -8.566680026482402E1  -2.367989164757833E1   3.419085375493723E1  -1.804357288502266E1   7.840198757103501E1  
                        -4.163492657069853E1  -6.164353266195787E1  -3.602138908699627E1   1.165585063754279E2  -1.760785141694243E1   4.839889094503367E1  -4.150636224215081E1  -9.864801050633155E1  
                        -2.375851958576207E1   2.991892304186004E1  -1.732807297461811E1   1.842117337058289E1  -2.113478577678199E1   1.088215959480691E2  -4.052203538141270E1  -3.461600135055118E1  
                        -1.828363557515790E1   9.924791532683655E1  -4.125655328799540E1  -1.000142714332849E2  -4.076488704220166E1  -8.654047378116175  -2.432480428277551E1   1.205847652454782E2  
                        
 3.686159159159159E10   -1.734757428478161E1   5.269600358751936E1  -4.099303280833109E1   6.563959644964891E1  -2.374370994917254E1  -1.037093504053753E1  -1.797282666092867E1  -1.311892828329305E2  
                        -4.108934910566674E1   9.177497531747486E1  -3.542618834077285E1  -4.349825573738326E1  -1.761482993909016E1  -1.610180897688904E2  -4.157611157178929E1  -1.098182580696469E2  
                        -2.371178887561850E1  -1.545801429858097E1  -1.752947656227348E1   1.709224962786656E2  -2.202927719838820E1   7.716248691828808E1  -4.152717758222835E1   1.167288249759795E2  
                        -1.816934471196668E1  -1.080167679316320E2  -4.154472405855312E1  -1.117142389956625E2  -4.185385232440521E1   1.460375831385016E2  -2.904035089590788E1   1.326177945448258E2  
                        
 3.693165165165165E10   -1.697496645108759E1   8.767406307632006  -4.153723920118323E1  -1.438585976836138E2  -2.370321038414916E1  -5.344150954243771E1  -1.818306338351833E1   2.073366747434474E1  
                        -4.180369148170883E1  -1.176233469771406E2  -3.463140569623086E1   4.432067906559141E1  -1.777013850908987E1  -1.039714026052387E1  -4.143229834300465E1  -1.210481255383532E2  
                        -2.371514733562660E1  -5.941003595979693E1  -1.750484429524148E1  -3.767906656865601E1  -1.961472028460324E1   3.630551469501673E1  -4.065002827118224E1  -8.371427830595563E1  
                        -1.800156090405173E1   4.287403213232228E1  -4.147075569451711E1  -1.232851733974703E2  -4.041790966567320E1  -5.473905625972822E1  -2.860634996969056E1   7.198096024814520E1  
                        
 3.700171171171171E10   -1.684720981189174E1  -2.128743242301613E1  -4.190597089468455E1   1.853434849719261E1  -2.379921228292719E1  -9.924312403401764E1  -1.807908741764379E1   1.727525155960501E2  
                        -4.159827621581528E1   4.507989900010287E1  -3.580375573207925E1   1.052689209100733E2  -1.765287320381657E1   1.451885336531422E2  -4.168769062494929E1  -1.331814998374327E2  
                        -2.369253951825182E1  -1.036828112369467E2  -1.756126423754166E1   1.130915091063997E2  -1.639761360232417E1   2.413896700539155  -4.039851374003752E1   6.576280174277959E1  
                        -1.817052311444056E1  -1.641345152043716E2  -4.165395645520864E1  -1.341906116746820E2  -4.058199130993032E1   9.584740554397325E1  -2.319906705969188E1   8.296698639588291E1  
                        
 3.707177177177177E10   -1.641519760413448E1  -5.067640007167677E1  -4.064527882481190E1   1.723845336619793E2  -2.385012374922676E1  -1.412369728973743E2  -1.811935774638659E1  -3.712797830747465E1  
                        -4.051558041504850E1  -1.627393257548733E2  -4.335698829622888E1   1.431199318624963E2  -1.755361305196777E1  -6.481365230329347E1  -4.130595367596786E1  -1.439238799576814E2  
                        -2.348424769261278E1  -1.484851234648002E2  -1.776045454436396E1  -9.593807039936938E1  -1.724172736019937E1  -1.915315992195892E1  -4.062384137818976E1  -1.413656348782978E2  
                        -1.800947660396192E1  -1.377541789935192E1  -4.144166878199197E1  -1.446938573893506E2  -4.033412507143065E1  -1.109780582154583E2  -2.544859510765129E1   9.380688698900478E1  
                        
 3.714183183183183E10   -1.716863630482364E1  -8.813587947995136E1  -4.027801009004959E1  -3.435895243397459E1  -2.324287129317496E1   1.715967161844799E2  -1.803692202225420E1   1.150838240394568E2  
                        -4.018286530832349E1  -1.023400339300930E1  -3.450761670511204E1   1.049415626360374E1  -1.781428171343139E1   8.664803337765416E1  -4.131865943991910E1  -1.546114325973553E2  
                        -2.338634367185545E1   1.659789440188547E2  -1.763021005394490E1   5.738494552904228E1  -1.628926226605629E1  -6.040353237357866E1  -3.974406698918570E1   1.596100192082361E1  
                        -1.804421227272340E1   1.369371051233287E2  -4.121860224861928E1  -1.558053257269947E2  -3.972271026574770E1   4.279356640009858E1  -3.318797160674423E1   5.157543032250766E1  
                        
 3.721189189189189E10   -1.758111012211367E1  -1.240884813240688E2  -3.959319166494712E1   1.180863314418535E2  -2.329494705198033E1   1.278251162695063E2  -1.801126054874616E1  -9.390046783634124E1  
                        -3.993853475195390E1   1.432286749163183E2  -3.470489969180799E1   9.321531243817873E1  -1.755375448804811E1  -1.216918836844913E2  -4.144800390488273E1  -1.659747131193751E2  
                        -2.335402697506116E1   1.218204864267984E2  -1.774372820855252E1  -1.518379096471061E2  -1.631694188511031E1  -8.472216840735926E1  -3.913584843864129E1   1.662985026857065E2  
                        -1.814873606287932E1  -7.086354829734428E1  -4.091988669293174E1  -1.691193222622270E2  -3.916644079206726E1  -1.653248716664490E2  -3.191156461754041E1   1.374838078361240E1  
                        
 3.728195195195195E10   -1.827096488938699E1  -1.629310939289198E2  -3.878881171078073E1  -8.922000659713102E1  -2.306214702117094E1   8.188551239294577E1  -1.821727340210436E1   5.845165650248415E1  
                        -3.892901576556196E1  -6.520594391420049E1  -4.702725692252050E1   6.188244820273745E1  -1.742588210916000E1   2.766915088465264E1  -4.114503721155498E1  -1.789322585794353E2  
                        -2.314085780246159E1   7.604493396438259E1  -1.753413181136590E1   5.212766705557018E-2  -1.894732471115550E1  -1.133028335311263E2  -3.883254194095446E1  -3.961415794016868E1  
                        -1.809348951785085E1   8.017500265615095E1  -4.116319290081290E1   1.794373762336195E2  -3.902701825057648E1  -1.297182371281301E1  -2.895963020046635E1   5.047159875468087E1  
                        
 3.735201201201201E10   -1.821267014262759E1   1.498768555408161E2  -3.841406662394696E1   5.877504397531627E1  -2.312837162894198E1   3.560653944966717E1  -1.816803623864591E1  -1.497374329389427E2  
                        -3.837898190586150E1   8.319705395186307E1  -3.263445754570688E1   1.650293599580192E1  -1.778491116014868E1  -1.791713264417231E2  -4.096020755946820E1   1.685256517323871E2  
                        -2.316291454158997E1   3.029427512994071E1  -1.760149088666189E1   1.518454579167406E2  -1.902646613982247E1  -1.658434714989597E2  -3.836491716796458E1   1.112381071247451E2  
                        -1.820598646933303E1  -1.276545206864823E2  -4.095142554167452E1   1.671286183393449E2  -3.880738628119347E1   1.373510489290288E2  -2.745456698269886E1   8.112934885069414E1  
                        
 3.742207207207207E10   -1.812989220031274E1   1.101881393703989E2  -3.852071056498414E1  -1.500361792140917E2  -2.327079522223041E1  -9.349210375277401  -1.809198301438924E1   1.249379494940678  
                        -3.837419044913941E1  -1.259660497478751E2  -3.429062723459094E1   6.272173500913552E1  -1.762821499283044E1  -2.832950335059136E1  -4.076750648325780E1   1.568150874296120E2  
                        -2.303842036138203E1  -1.504942615328023E1  -1.752802249037194E1  -5.742213291744609E1  -2.038978577098963E1   1.593162475420245E2  -3.821447010128749E1  -9.741721015741132E1  
                        -1.831257845031606E1   2.330132401615202E1  -4.087307922600618E1   1.544925657319857E2  -3.836607362452425E1  -6.997986742055566E1  -2.959681192219529E1   6.943891323908436E1  
                        
 3.749213213213213E10   -1.835575156917392E1   7.172721160264283E1  -3.875717764146485E1   4.611010233234145  -2.349100316164426E1  -5.435814996312269E1  -1.825223728404759E1   1.524276280588185E2  
                        -3.842753714902543E1   2.800595086145297E1  -3.667864629826138E1   2.781860176046262E1  -1.802964848382642E1   1.220790094536764E2  -4.090652434466207E1   1.451262178697510E2  
                        -2.321519690140339E1  -6.001612983984951E1  -1.770702518605122E1   9.383910066579932E1  -2.164832015212935E1   8.776370315210248E1  -3.799932301222243E1   5.363764555744751E1  
                        -1.826652064028611E1   1.745191678527250E2  -4.101159564554059E1   1.442450821781379E2  -3.826372822551181E1   8.170008463204847E1  -2.730490487111141E1   2.318052659640805E1  
                        
 3.756219219219219E10   -1.735466526571585E1   2.991990534033691E1  -3.777416229145315E1   1.570385542215161E2  -2.330068101167188E1  -1.017097489763817E2  -1.831786412940765E1  -5.575315395732522E1  
                        -3.783617594006674E1  -1.787308941437013E2  -3.454148957584405E1   3.231965317886231E1  -1.802341412244137E1  -8.486828855135217E1  -4.109326620120413E1   1.338565294580077E2  
                        -2.313845456506596E1  -1.041225384301816E2  -1.782946763276998E1  -1.152354070034133E2  -1.901794304943479E1   5.589340094791240E1  -3.799239629809511E1  -1.552338587680510E2  
                        -1.841163987633427E1  -3.289387075706195E1  -4.094011886620545E1   1.315235027405626E2  -3.798147562238501E1  -1.265275488800095E2  -2.331490477119433E1   2.814416926459692E1  
                        
 3.763225225225225E10   -1.728083329858001E1  -7.301430577260815  -3.772073329564459E1  -5.316367792259871E1  -2.349000214459607E1  -1.448311326190454E2  -1.828108573224483E1   9.555754835921221E1  
                        -3.761107257403393E1  -2.732665880732808E1  -3.117768857475808E1   4.396308484308624E1  -1.793432722380606E1   6.691019404650460E1  -4.093590615590244E1   1.217812549839059E2  
                        -2.315457544198920E1  -1.500114750343062E2  -1.768774025786161E1   3.672151115757180E1  -1.832013110143086E1   1.871402126204703E1  -3.773334988418176E1  -1.876530563980792  
                        -1.822469542588481E1   1.186021948988038E2  -4.088708539673328E1   1.202360081369251E2  -3.753244301388832E1   2.820612576445007E1  -2.292002917229838E1   2.133806684325472E1  
                        
 3.770231231231231E10   -1.697194846371801E1  -4.102843051172690E1  -3.733902666370525E1   1.023764214393826E2  -2.316424804399757E1   1.696910668974478E2  -1.838201136273964E1  -1.121456393596172E2  
                        -3.743814086488890E1   1.254544963191962E2  -3.285431976382755E1   1.215199914271990E1  -1.800816381804324E1  -1.431410183658089E2  -4.059933887188668E1   1.097680902368324E2  
                        -2.317004334412040E1   1.661680218508289E2  -1.783287373227316E1  -1.716266540599337E2  -1.705221783106779E1  -1.990459084408790E1  -3.699425319771670E1   1.491269504004133E2  
                        -1.832589646316846E1  -8.976107888397675E1  -4.069681438065422E1   1.080886690034747E2  -3.646428779863123E1   1.745112986513966E2  -2.499860988410528E1   1.181240679822255E-1  
                        
 3.777237237237237E10   -1.657624054809338E1  -8.176134015580418E1  -3.629062323354167E1  -1.074216570075708E2  -2.322698870206175E1   1.248519958627298E2  -1.831266354521676E1   3.846409434726629E1  
                        -3.647477817874353E1  -8.419638621211203E1  -3.134328460511459E1   3.267476608451383E1  -1.792034203719274E1   9.063110861076217  -4.068523832996948E1   9.753637411343132E1  
                        -2.313237739527127E1   1.196772970422253E2  -1.786907172016442E1  -1.987161340164025E1  -1.619639692023198E1  -3.882726555006160E1  -3.670524922082949E1  -6.209237982663292E1  
                        -1.839512875374068E1   6.138005964398238E1  -4.035507124194158E1   9.506662157195542E1  -3.652662963330834E1  -3.380609796897067E1  -2.343166507520495E1  -5.254913010174215  
                        
 3.784243243243243E10   -1.706870674236467E1  -1.209987515053922E2  -3.614937141626729E1   3.950860414662133E1  -2.324525403258937E1   7.919465265549233E1  -1.841863244749221E1  -1.689815146929180E2  
                        -3.623127829498410E1   6.378299078214289E1  -3.627475312949087E1   7.411207752411906E1  -1.799935177730426E1   1.608028489750444E2  -4.044265580504295E1   8.423757285703050E1  
                        -2.309442313021822E1   7.482564632602478E1  -1.794583912956179E1   1.317465623499714E2  -1.669667583264375E1  -6.656553179074629E1  -3.641193709746045E1   9.113826501252649E1  
                        -1.821785948268854E1  -1.470212552270808E2  -4.039474560580729E1   8.221180570952060E1  -3.664032169753743E1   1.192762008631285E2  -2.290411464387789E1  -8.180259766729991  
                        
 3.791249249249249E10   -1.721266731106107E1  -1.535138695934787E2  -3.596899968913555E1  -1.677625661446114E2  -2.277698100903318E1   3.279687744796237E1  -1.843538959899645E1  -1.736460552522802E1  
                        -3.612078854633498E1  -1.453767362903006E2  -3.083482294640688E1   1.277332203775899E1  -1.799956404663589E1  -4.956659239961392E1  -4.041474719818674E1   7.319640465933314E1  
                        -2.292822482179805E1   2.832431824334467E1  -1.793271362231743E1  -7.616464403872723E1  -1.753104440493069E1  -1.129914555978624E2  -3.568504065508586E1  -1.174903188678808E2  
                        -1.832083601131818E1   3.746134797884089  -4.046540543623352E1   6.922555378665555E1  -3.549032621493419E1  -9.302288831788243E1  -2.323555680186145E1   3.877344017219639  
                        
 3.798255255255255E10   -1.712851372248472E1   1.652667446600171E2  -3.564337246175433E1  -1.885316558906848E1  -2.312757508835975E1  -1.351040734030473E1  -1.871430654494361E1   1.335023559959233E2  
                        -3.589761570173445E1   4.268465163208878  -2.979664871145687E1   3.716030113546428E1  -1.805049981340456E1   1.005932029782640E2  -4.033906389593886E1   5.955111515351232E1  
                        -2.321749830353999E1  -1.726740802396344E1  -1.805092256503943E1   7.548311215549673E1  -1.738518875497820E1  -1.348632738453941E2  -3.605421727693454E1   3.061248515528611E1  
                        -1.855474005846057E1   1.547887704791900E2  -4.038406725214169E1   5.599356068630439E1  -3.624723716109592E1   5.276791580352256E1  -2.508583767432742E1   1.793740377763106  
                        
 3.805261261261261E10   -1.790292165580107E1   1.299508003145236E2  -3.540902842153749E1   1.305583900470569E2  -2.318860534677931E1  -5.924036934568863E1  -1.860903478251483E1  -7.458757488852798E1  
                        -3.582773311718103E1   1.548604862518429E2  -3.410667423417486E1   6.778140874367138E1  -1.825556590444464E1  -1.070423766233697E2  -4.027393255275925E1   4.654486966860310E1  
                        -2.324765180106079E1  -6.140827124508290E1  -1.799188012665487E1  -1.328341275481411E2  -1.869661505836379E1   1.735803297264475E2  -3.586096440788585E1  -1.753952400889453E2  
                        -1.848406465467878E1  -5.349590569758481E1  -4.031735933994920E1   4.254019461733954E1  -3.571424439330632E1  -1.510637546609646E2  -2.542325489258550E1  -5.266464254344921E-1  
                        
 3.812267267267267E10   -1.845808082643385E1   8.867663733326111E1  -3.542945847050826E1  -7.861083289270307E1  -2.328223557740930E1  -1.075244772203216E2  -1.860979175562790E1   7.582611565435919E1  
                        -3.568440839638761E1  -5.414722525358425E1  -3.292243819464090E1   5.920451249135835  -1.820170050261417E1   4.380245103255943E1  -4.026874688449934E1   3.337229823235133E1  
                        -2.311005646465041E1  -1.078556751610830E2  -1.809419057456354E1   1.771566145958614E1  -1.776175878925563E1   1.354613365428093E2  -3.546604372348168E1  -2.762243687714522E1  
                        -1.869802707694567E1   9.832808689829086E1  -4.024601180982644E1   3.138431567562671E1  -3.530637541345087E1  -4.311093819847066  -2.168433774444298E1  -2.050731905309377E1  
                        
 3.819273273273273E10   -1.826314280916874E1   5.541991395263048E1  -3.545009797838361E1   7.105071689628882E1  -2.349278837053775E1  -1.516198684922237E2  -1.869299441206210E1  -1.316465292574692E2  
                        -3.541989899911992E1   9.665478576923682E1  -2.652357346955298E1   1.630412330910637E1  -1.841586650357779E1  -1.658640975479758E2  -4.036426852135804E1   2.089776831079718E1  
                        -2.352141631066384E1  -1.537942514100239E2  -1.809945997907913E1   1.694569802464532E2  -1.754906355747105E1   1.013752160726779E2  -3.546828993413842E1   1.199447169981182E2  
                        -1.880710613854897E1  -1.099187935794651E2  -4.011236433426507E1   1.932341259026939E1  -3.559206617161250E1   1.426653580049118E2  -2.238916084865837E1   5.454857634716645  
                        
 3.826279279279279E10   -1.943526293296207E1   1.716631870013573E1  -3.485173581208149E1  -1.393492035155164E2  -2.367658599490410E1   1.652567987192808E2  -1.879974486740849E1   1.936823765240283E1  
                        -3.507816269632625E1  -1.135206569658951E2  -3.212001112274988E1   6.049587172791131E1  -1.845534277478348E1  -1.108684950105374E1  -4.012077356891732E1   7.965414362289125  
                        -2.342640742770476E1   1.618476359875948E2  -1.822737540684888E1  -3.948627661913002E1  -1.689266321660367E1   5.174192457261854E1  -3.544013799955576E1  -8.821284402029500E1  
                        -1.884696221368488E1   4.303690493101558E1  -4.017270612465752E1   6.573025353411365  -3.567783392104924E1  -6.259455407508717E1  -2.180572802990980E1   1.378767357576166E1  
                        
 3.833285285285285E10   -1.955225278671607E1  -2.343024732590266E1  -3.476915612458154E1   1.073150219447555E1  -2.349686248636977E1   1.178211136553097E2  -1.882092731719086E1   1.715617962974194E2  
                        -3.472234973810274E1   3.462587645114992E1  -3.103819252072189E1   2.000296469380909E1  -1.858817913740091E1   1.388993710540533E2  -4.015917053789315E1  -6.273879310676109  
                        -2.334071852749640E1   1.154773520915620E2  -1.833426956121891E1   1.125985316688213E2  -1.508000129485706E1   1.650732778974466E1  -3.516117865434303E1   6.204173037414503E1  
                        -1.880551226395081E1  -1.658008772849764E2  -4.010293129516803E1  -6.704845661125606  -3.506889691843575E1   8.648841427264004E1  -2.450508077538268E1  -1.377725043280659E1  
                        
 3.840291291291291E10   -1.860121405998295E1  -6.046114144104742E1  -3.463166629383168E1   1.608834982583024E2  -2.386997861608980E1   7.376389337277310E1  -1.889237336120462E1  -3.686552208613382E1  
                        -3.467518447079784E1  -1.746985989777271E2  -2.953019096360127E1   2.712806232292132E1  -1.866434067539815E1  -6.634513432082116E1  -3.992864524904011E1  -1.880543659073245E1  
                        -2.359081941775417E1   7.018424135011622E1  -1.831656246878330E1  -9.647104241258215E1  -1.445698348529491E1  -1.512075014703703E1  -3.525942716543983E1  -1.491077635642021E2  
                        -1.892382281410556E1  -1.414245227336867E1  -3.993803701916373E1  -2.005306094532276E1  -3.563605704878526E1  -1.232251706992370E2  -2.319772158283766E1  -1.886286901355406E1  
                        
 3.847297297297297E10   -1.811675543965176E1  -1.014192030883308E2  -3.431197397345427E1  -5.043071684482809E1  -2.381047992530690E1   2.995299461663751E1  -1.891780699271242E1   1.135654221100710E2  
                        -3.436935274157501E1  -2.453233972219842E1  -2.965400836836975E1   5.513423961869744E1  -1.851836690193440E1   8.547839330010845E1  -4.006353797407230E1  -3.326976611519399E1  
                        -2.364509788362175E1   2.454891796365399E1  -1.849248790043586E1   5.442822750848474E1  -1.325702296406364E1  -5.614295848622564E1  -3.531039786039994E1   1.206495783750364  
                        -1.882918302487732E1   1.375631019590203E2  -4.007416891967178E1  -3.382373119922382E1  -3.522817183049623E1   3.056580894194544E1  -2.172863544813584E1  -7.046531538672733  
                        
 3.854303303303303E10   -1.672641532213190E1  -1.346536287664360E2  -3.444690446940957E1   9.654463048219944E1  -2.342393045839894E1  -1.950820578392347E1  -1.900645324528391E1  -9.459947769824839E1  
                        -3.430044219338291E1   1.225219924594680E2  -3.195683143740725E1   2.144444932287914E1  -1.850952687184606E1  -1.243484877366385E2  -4.015032508844509E1  -4.539909381981916E1  
                        -2.375494875525875E1  -2.344462768195036E1  -1.871018352501218E1  -1.529420234683546E2  -1.263891204781218E1  -8.720106218042059E1  -3.514116184473885E1   1.515725292756909E2  
                        -1.896652288842949E1  -7.146318681224932E1  -4.036830928230948E1  -4.811627660978235E1  -3.496187716134275E1   1.781280232503308E2  -2.319763024943186E1   1.837419519456120E1  
                        
 3.861309309309309E10   -1.547559967082712E1  -1.681066153844178E2  -3.461444630224328E1  -1.129098472492120E2  -2.410433353967720E1  -6.509590460994014E1  -1.902239087955368E1   5.677051275438068E1  
                        -3.472416381530608E1  -8.808889397592104E1  -3.539084732655475E1  -2.400918125616679E1  -1.862941589403290E1   2.610789712575857E1  -4.032161180652840E1  -5.894570848043482E1  
                        -2.408650703716316E1  -6.658797401018521E1  -1.847475545910978E1  -9.667776671294663E-1  -1.274007503070754E1  -1.282193922535037E2  -3.509072470786619E1  -5.884257071680776E1  
                        -1.898667016779569E1   8.105857440794217E1  -4.018089236313882E1  -6.162583135069669E1  -3.498382800616738E1  -3.345784479623237E1  -2.778422234637131E1  -1.051522140281128E1  
                        
 3.868315315315315E10   -1.533828046196763E1   1.590021264655823E2  -3.461106961422796E1   3.736593038799320E1  -2.405310530321076E1  -1.109851300149807E2  -1.910392856777220E1  -1.510230438069578E2  
                        -3.442897481048525E1   6.219184273354541E1  -3.700059226903436E1   3.791461221030898E1  -1.854314665971642E1   1.758759970643883E2  -4.048249876469927E1  -7.242761387660762E1  
                        -2.423873778316927E1  -1.125686287798515E2  -1.866771159396022E1   1.503908175435446E2  -1.222071754291198E1  -1.672285722397720E2  -3.527006935858572E1   9.099608751370475E1  
                        -1.900113112221306E1  -1.286298141070595E2  -4.031800924431624E1  -7.344835880064022E1  -3.517987263928091E1   1.142707255316439E2  -2.287028368525619E1  -3.639542375477730E1  
                        
 3.875321321321321E10   -1.518504344790611E1   1.299785609869080E2  -3.464256063187359E1  -1.742289368517033E2  -2.423541590778613E1  -1.575203416153031E2  -1.924284838199424E1  -1.081946938266214E-1  
                        -3.482406094222282E1  -1.490813407326239E2  -3.374605321071841E1  -3.108870918878837E1  -1.871501961515089E1  -3.384036142478612E1  -4.081199121612092E1  -8.582576369769269E1  
                        -2.456476846910152E1  -1.590261753846145E2  -1.875629809880034E1  -5.910014995780073E1  -1.249199990497104E1   1.560383680187321E2  -3.529786660022584E1  -1.204411879530872E2  
                        -1.948927531278855E1   2.381836970147025E1  -4.059377124244384E1  -8.732754394800816E1  -3.539022900757443E1  -9.633702378785974E1  -2.143123561579921E1  -1.200885267128008E1  
                        
 3.882327327327327E10   -1.551090161600697E1   9.467570910037276E1  -3.489695184503407E1  -2.444991029052234E1  -2.504704229459139E1   1.590003362502223E2  -1.924142266468988E1   1.523824426869209E2  
                        -3.487300017779157E1   7.774338896258992E-1  -3.389969529095420E1   1.035143988988006E1  -1.883143010456471E1   1.213944716198210E2  -4.075095106563719E1  -9.918921048951320E1  
                        -2.485086019783515E1   1.558709115940857E2  -1.884255820276336E1   9.198813993255325E1  -1.281757617073691E1   1.076087098994933E2  -3.531919616916038E1   2.889637274531168E1  
                        -1.954264797699941E1   1.758666928800058E2  -4.064158887413014E1  -1.000023078753524E2  -3.542746934476001E1   5.639165268265919E1  -2.626871624674831E1   8.191257319061515  
                        
 3.889333333333333E10   -1.571161056882040E1   5.467833558543516E1  -3.502531319209246E1   1.265452782131913E2  -2.504172518919571E1   1.130021605449285E2  -1.942833581263031E1  -5.565008117779539E1  
                        -3.516703633825431E1   1.506367370878822E2  -4.813808866614799E1  -1.599771357592601E2  -1.931615018024623E1  -8.860828897043720E1  -4.086584021022237E1  -1.128986677304894E2  
                        -2.491036752289029E1   1.096736460877930E2  -1.896337596732149E1  -1.170835062464330E2  -1.186472768029596E1   7.014082155595055E1  -3.538853517360455E1   1.772273416793483E2  
                        -1.955126389846308E1  -3.163254486569797E1  -4.088930700492835E1  -1.142378836169937E2  -3.545407814225362E1  -1.551172775833004E2  -3.132363750639600E1  -5.211156755181902E1  
                        
 3.896339339339339E10   -1.538096400289188E1   1.265263418935988E1  -3.491625739707110E1  -8.278476238202741E1  -2.548949641462822E1   7.114086983101738E1  -1.948589291814825E1   9.565189488269148E1  
                        -3.531133935950685E1  -5.696437546716558E1  -3.351924805741525E1  -7.916430682786654E1  -1.954176519692262E1   6.743556581232186E1  -4.106413419536152E1  -1.239627896086781E2  
                        -2.535052753298984E1   6.693239457403622E1  -1.901674041854780E1   3.540466116637169E1  -1.181898552759717E1   2.836512533878671E1  -3.598325359809279E1  -3.246717715208267E1  
                        -1.961505573618155E1   1.213590825389395E2  -4.100703606475766E1  -1.243059717079850E2  -3.639103825986314E1  -1.371214675167570  -2.897165957600989E1  -4.313061847446515E1  
                        
 3.903345345345345E10   -1.479805924199325E1  -3.282273122337959E1  -3.499783751471086E1   6.403828530134128E1  -2.524311940938523E1   2.570080108814791E1  -1.950358810619936E1  -1.138784023403760E2  
                        -3.532624077143218E1   9.102772627152501E1  -4.705689148489810E1   6.007334673620478E1  -1.919778231895025E1  -1.420088621262819E2  -4.126142786194230E1  -1.386239454485859E2  
                        -2.534048762007561E1   2.274974030633547E1  -1.906149028499480E1  -1.758836527557580E2  -1.103562007122303E1  -1.516324628734392E1  -3.598730381342759E1   1.185163918754510E2  
                        -1.969386487944279E1  -8.630862320859461E1  -4.093646352349820E1  -1.406158340708259E2  -3.631938042638298E1   1.488791067597475E2  -2.561423079333735E1  -2.264863444274965E-1  
                        
 3.910351351351351E10   -1.366607173367439E1  -7.636164871133369E1  -3.576202807634375E1  -1.466715190140634E2  -2.552593026493590E1  -2.042429127369084E1  -1.979864505472234E1   3.845139046299381E1  
                        -3.558361964986028E1  -1.189714887656211E2  -3.047207130341428E1   1.413839353547292E2  -1.953498190579177E1   1.166297371249170E1  -4.148295435292715E1  -1.499466122550896E2  
                        -2.564349698932286E1  -2.392023531336737E1  -1.957871773652911E1  -2.197557884571860E1  -1.005167709844201E1  -4.831383445600167E1  -3.604852672551209E1  -9.110148758231831E1  
                        -1.955788220436982E1   6.530204377066816E1  -4.165756327156111E1  -1.529017557825472E2  -3.612031563933033E1  -5.988250466755420E1  -2.905571502064227E1   1.896827290126485E1  
                        
 3.917357357357357E10   -1.259091072734946E1  -1.152617247894902E2  -3.572895053485464E1   7.048419146177942  -2.594291422469490E1  -6.140082726952895E1  -1.961522041514031E1  -1.694142572458060E2  
                        -3.563187138325757E1   3.359567339924001E1  -3.610847019827946E1  -1.041075617984539E2  -1.927953329114182E1   1.658829654114565E2  -4.168515726798234E1  -1.630249851493373E2  
                        -2.583622448002716E1  -6.659219353891552E1  -1.930631926859681E1   1.301378672402827E2  -1.012627563025232E1  -9.214217137194784E1  -3.647940955855692E1   6.043730839318259E1  
                        -1.960220127288337E1  -1.444046323607613E2  -4.174662372872680E1  -1.654283274083677E2  -3.615577387122102E1   9.219929249637193E1  -3.888297831206513E1  -1.485183477026255E2  
                        
 3.924363363363363E10   -1.175889295441570E1  -1.552519238825493E2  -3.581849783114412E1   1.529742453876714E2  -2.576679142337029E1  -1.071773260056811E2  -1.994414015548784E1  -1.758978609909505E1  
                        -3.584790138748657E1  -1.792873147182267E2  -3.581441100195417E1   5.356713114010292E1  -1.913442963477956E1  -4.578614546214566E1  -4.212383569909676E1  -1.771483819250212E2  
                        -2.577880694597230E1  -1.129248473016854E2  -1.930839083377868E1  -7.874748524777682E1  -9.385905335009660  -1.320469639525204E2  -3.649841013093784E1  -1.493744320569015E2  
                        -1.985209981455496E1   7.717018914969430  -4.246023219924615E1  -1.796323461133005E2  -3.636718387572098E1  -1.170362249627838E2  -3.072972271888692E1  -9.336366686441728E1  
                        
 3.931369369369369E10   -1.082511411864501E1   1.656572822705757E2  -3.645766981510898E1  -5.494341275416058E1  -2.637498436220194E1  -1.546736574201341E2  -2.005867994452159E1   1.350463570230070E2  
                        -3.644503845057207E1  -2.790844234780331E1  -3.170013937981686E1   9.889646540548753E1  -1.971616418029630E1   1.059548045714196E2  -4.250045487466113E1   1.719190869469980E2  
                        -2.630094496984615E1  -1.584473666736577E2  -1.960549314609965E1   7.465511602569664E1  -9.537856625949196  -1.713454197008817E2  -3.652595465061017E1   2.153127564489031E-1  
                        -1.999775227336017E1   1.601313956124977E2  -4.264037843748837E1   1.710168511773827E2  -3.656137547432408E1   2.904721633028664E1  -4.291551570427082E1  -1.361577473339096E1  
                        
 3.938375375375375E10   -1.091933305764032E1   1.304282713090104E2  -3.651766727356446E1   9.577541872989841E1  -2.671637639527882E1   1.615325496113510E2  -1.999343523312861E1  -7.286903960278450E1  
                        -3.630899162646800E1   1.241329599384516E2  -3.788519264828244E1   1.382427030601264E2  -1.960056268243769E1  -1.017019028756387E2  -4.297931424560836E1   1.617460378558695E2  
                        -2.638968899581376E1   1.580818392217687E2  -1.955533150111445E1  -1.357696963848368E2  -9.775790161039916   1.462823502415495E2  -3.703551948883658E1   1.514541159209695E2  
                        -1.996546555035793E1  -4.790921749385000E1  -4.265236357870427E1   1.581425513600767E2  -3.696561566429356E1  -1.773587822615135E2  -3.054786343515810E1   1.312885453340135E2  
                        
 3.945381381381381E10   -1.109576164833566E1   9.437332275086652E1  -3.673733641908072E1  -1.148967886896488E2  -2.692139053845975E1   1.179024623355838E2  -2.030770635627019E1   7.911121702943036E1  
                        -3.666754912795137E1  -8.692367373603850E1  -3.617229929064531E1   6.853280455314025E1  -1.986687263949381E1   5.046519474848660E1  -4.312280408193519E1   1.487842881713830E2  
                        -2.681822120742861E1   1.128549930324116E2  -1.979238118332146E1   1.575115036573211E1  -1.014590292793608E1   1.055979122869735E2  -3.729232690837848E1  -5.820065125561951E1  
                        -2.032034441555980E1   1.046861702820246E2  -4.294629364076885E1   1.453184881986083E2  -3.797199973806042E1  -2.709027745196879E1  -2.732749866911096E1   1.509626274104139E2  
                        
 3.952387387387387E10   -1.123901677502812E1   5.412808809464188E1  -3.719204742844406E1   3.607574966236668E1  -2.762670396244373E1   7.313918898742669E1  -2.010914631984094E1  -1.278168859068301E2  
                        -3.751739293211242E1   6.317245065880077E1  -2.825237563450569E1   4.904466658702738E1  -2.030468864602894E1  -1.587045680042863E2  -4.320288263347791E1   1.377787205504530E2  
                        -2.707425067495815E1   6.994307941551379E1  -1.965604537981337E1   1.692550159978794E2  -1.018954505739603E1   6.660307756454303E1  -3.730187141704062E1   9.281290180522539E1  
                        -2.030927190770595E1  -1.017811514229512E2  -4.338165924318591E1   1.352075579710346E2  -3.780182746895380E1   1.236374354297265E2  -3.683560544687371E1   1.542894657633985E2  
                        
 3.959393393393393E10   -1.164136992974047E1   1.113297884866423E1  -3.745463319843585E1  -1.709348630667187E2  -2.751027871240286E1   3.319890629782444E1  -2.012496350105137E1   2.310339548790505E1  
                        -3.751411155885241E1  -1.420764119858300E2  -3.484481000025691E1   4.306301183798470  -2.013671664649980E1  -1.565403940158163  -4.349475955994612E1   1.265289513059735E2  
                        -2.733428027886260E1   2.741981340067214E1  -1.983858443064800E1  -3.721645768627300E1  -9.600214296148179   2.398117878871395E1  -3.757586934012380E1  -1.152778322453427E2  
                        -2.026524663800353E1   4.997916898534782E1  -4.338832983578290E1   1.247902110665813E2  -3.836003242757820E1  -8.339585324640802E1  -3.537665837480961E1   9.250562938970846E1  
                        
 3.966399399399399E10   -1.141301163337938E1  -3.151248197220703E1  -3.744871535299059E1  -2.312215305683195E1  -2.759718220181129E1  -9.495836038842032  -2.020339447503812E1   1.753317110395285E2  
                        -3.741766731439474E1   8.055416990368585  -3.408869747679511E1   2.567956838811749E1  -1.987926544678007E1   1.533952474201084E2  -4.369351829155349E1   1.143094352994513E2  
                        -2.732214231285046E1  -1.658237639978643E1  -1.978072262757233E1   1.137267560906295E2  -9.614262594522309  -1.344095763289280E1  -3.794301962022444E1   3.533283751513410E1  
                        -2.039655382910960E1  -1.565844485881010E2  -4.387582504197749E1   1.109686272596540E2  -3.819103614837968E1   7.239399000512147E1  -2.556750964831490E1   1.318975818695874E2  
                        
 3.973405405405405E10   -1.138001141308259E1  -7.827432861810961E1  -3.803974996477957E1   1.281627515610026E2  -2.748050215853984E1  -5.196123016698894E1  -2.024269540373058E1  -3.136087417538655E1  
                        -3.790048476735619E1   1.576298965345965E2  -2.928483864572582E1   2.362351827144379  -1.982880941635267E1  -5.665531324139416E1  -4.405413997029914E1   1.046473806989434E2  
                        -2.739407580916150E1  -6.134185541493818E1  -1.987733002176932E1  -9.414171880029488E1  -8.897214423766803  -5.594951705394858E1  -3.835497493855888E1  -1.726633222241514E2  
                        -2.023131748819722E1  -4.760262499320044  -4.387235940590826E1   1.002887791343419E2  -3.828082115127047E1  -1.376716843349490E2  -2.463557185061327E1   1.295443806515778E2  
                        
 3.980411411411411E10   -1.011666156433589E1  -1.214178026469652E2  -3.840920213654908E1  -8.165349510395411E1  -2.748688708805882E1  -9.517149721774752E1  -2.006825644037253E1   1.210329608979189E2  
                        -3.808598286993178E1  -5.051854911592156E1  -2.843759279260917E1   1.473366849175166  -1.965910443537643E1   9.461271106501647E1  -4.422152740149422E1   9.242429771992417E1  
                        -2.760347511437005E1  -1.028604654642054E2  -1.962350202595995E1   5.938780178213259E1  -8.627889837837820  -9.407143292991908E1  -3.879116909740729E1  -2.022722435096165E1  
                        -2.010974319224683E1   1.484182329896266E2  -4.413473851963651E1   9.021155065602808E1  -3.837430692581108E1   1.265697142014481E1  -2.628009458097035E1   1.348168560172622E2  
                        
 3.987417417417417E10   -9.401367963657147  -1.609335355033736E2  -3.865168626457760E1   7.002008180263690E1  -2.746658526784440E1  -1.425351029209741E2  -2.012809836458557E1  -8.691712947820903E1  
                        -3.864135804432011E1   1.000800339694706E2  -2.584152764683021E1  -4.426465546819879  -1.943359408959904E1  -1.120201789544266E2  -4.493204729623035E1   8.019959260139858E1  
                        -2.767231449873141E1  -1.486693545684589E2  -1.978665646549380E1  -1.476530317892329E2  -8.965957501688060  -1.363545445562889E2  -3.857139416976938E1   1.314889249962635E2  
                        -2.025817531643091E1  -6.181635389427456E1  -4.469481603479949E1   7.662142214826912E1  -3.818692055912857E1   1.646505406020786E2  -2.707688108965543E1   1.098593381915580E2  
                        
 3.994423423423423E10   -9.791023567603569   1.609120131864114E2  -3.907090341835922E1  -1.374444496384537E2  -2.770174091058783E1   1.733619439793864E2  -2.056071542153987E1   6.486069140702541E1  
                        -3.878708083415221E1  -1.098346455527512E2  -3.005671918679483E1  -2.904090207350949  -1.943016061238190E1   3.692546703827459E1  -4.486983066086326E1   7.146170553537905E1  
                        -2.782327751265590E1   1.687761743960763E2  -1.965023201854925E1   5.407816975950236  -8.766052181889622   1.790518918064990E2  -3.925324552517646E1  -7.739866896156441E1  
                        -2.014333073440335E1   8.910881138720630E1  -4.454585961019532E1   6.684364283133836E1  -3.924276541899128E1  -4.716029308644789E1  -2.515359720467008E1   9.358516563419227E1  
                        
 4.001429429429429E10   -9.815388854313973   1.205526702505483E2  -3.951830663808792E1   1.287619230286061E1  -2.828671204125188E1   1.277414914394269E2  -2.044394216104920E1  -1.412704660282641E2  
                        -3.961099640947233E1   4.089973396589185E1  -2.566878999276896E1  -3.150636838706704E1  -1.974387802856880E1  -1.739257524955792E2  -4.536145004870735E1   5.972305835530629E1  
                        -2.844286210030494E1   1.228415218480427E2  -1.960277987239418E1   1.541023656120574E2  -9.388684671609893   1.433722527296985E2  -3.908444488657460E1   7.593252696413383E1  
                        -2.046069578632608E1  -1.180207824001723E2  -4.496117517277570E1   5.593391503414070E1  -3.909334324620643E1   1.049098840694687E2  -2.423690812630631E1   1.091865923363590E2  
                        
 4.008435435435435E10   -1.071643194048548E1   8.215492397060484E1  -4.025261919367700E1   1.698963009944613E2  -2.847956725789232E1   8.874613699589207E1  -2.027102250728924E1   1.097327425377461E1  
                        -4.039152007413136E1  -1.626516200645898E2  -2.682413352812889E1  -9.165877099637479  -2.001471663567849E1  -1.980828862588932E1  -4.515824052079898E1   4.979632728696347E1  
                        -2.861617498141277E1   8.287889437227246E1  -1.964454678377481E1  -5.133282140581397E1  -9.740942345467431   1.005874052343288E2  -3.944593676408203E1  -1.342317361968003E2  
                        -2.045784311508758E1   3.661834854472328E1  -4.519433702618284E1   4.686070244831299E1  -3.971937316162119E1  -1.066024985044251E2  -2.490562060881543E1   1.138673574671082E2  
                        
 4.015441441441441E10   -1.049634153228186E1   4.423417887940653E1  -4.000371481544287E1  -3.729614356534630E1  -2.840840051733198E1   4.402088089993394E1  -2.022671123564190E1   1.626179502962030E2  
                        -4.010511351077260E1  -1.250106823989554E1  -3.136500284620977E1  -1.140387998480993E1  -1.979008448418491E1   1.330586652402096E2  -4.539296514938825E1   3.914478644766427E1  
                        -2.851881882082228E1   3.957228670536002E1  -1.960349640154800E1   1.013003128475531E2  -1.017172089895695E1   6.181285105314849E1  -4.005062446775310E1   1.926663089578810E1  
                        -2.066240506059152E1  -1.729324147042082E2  -4.507450051357514E1   3.578626743876843E1  -4.020012004958424E1   4.873851764922126E1  -2.521521184534798E1   9.474686999736410E1  
                        
 4.022447447447447E10   -1.070231584050544E1   5.255771339168355  -4.050645863557880E1   1.101988491262689E2  -2.863814714326663E1   2.579016385781051  -2.039131875322788E1  -4.331486461213993E1  
                        -4.079905342970198E1   1.396137707795207E2  -2.629250228944371E1  -5.074550469218883E1  -2.032976337783340E1  -7.484011900100333E1  -4.536083911935473E1   2.840316080431446E1  
                        -2.845074854114039E1  -2.735712647274806  -1.959089643096252E1  -1.087353635665194E2  -1.054640219206681E1   2.369724411901918E1  -3.993111306739355E1   1.729371259587015E2  
                        -2.059226680301762E1  -1.831367890766519E1  -4.533729687454995E1   2.575637481345009E1  -4.060195995683556E1  -1.583526208744405E2  -2.411322171052764E1   9.905494451201766E1  
                        
 4.029453453453453E10   -1.150603603155656E1  -3.920259400838900E1  -4.126110710744600E1  -9.424123918035645E1  -2.822143229830746E1  -3.747836957535724E1  -1.992923366566670E1   1.069843242100376E2  
                        -4.126355219068253E1  -6.550622065851034E1  -2.684970515668165E1  -6.844945707687246  -1.988869630412516E1   7.768144023560123E1  -4.558302574474052E1   2.027823913215157E1  
                        -2.826208876472403E1  -4.594239715751930E1  -1.977781277071237E1   4.461843845194566E1  -1.019391432285913E1  -2.263216717250382E1  -4.055194258347831E1  -3.640211961819249E1  
                        -2.001341925059939E1   1.341402295079886E2  -4.528325376054782E1   1.468056846135757E1  -4.053358384123261E1  -4.942300906002932  -2.298933930558158E1   8.498255527520935E1  
                        
 4.036459459459459E10   -1.181886064376325E1  -8.210107821389315E1  -4.123586738792196E1   5.784721391985057E1  -2.814141730849988E1  -8.350146752252032E1  -2.015345747775508E1  -1.003991644130093E2  
                        -4.140898771385925E1   8.540807294362567E1  -2.845094397350891E1  -2.146236161575527E1  -1.945818388681640E1  -1.319582268513667E2  -4.572050353386523E1   7.720213590282110  
                        -2.827275534652656E1  -8.857271403916685E1  -1.950870548589475E1  -1.629591766329793E2  -1.041881213382014E1  -6.140656989609336E1  -4.104535661391774E1   1.190429798941187E2  
                        -2.014558385694688E1  -7.649243279763691E1  -4.538761691311312E1   4.494828492599423  -4.077678855330939E1   1.477892452753407E2  -2.269579217799756E1   9.950514650441656E1  
                        
 4.043465465465465E10   -1.174267012948538E1  -1.273082622797966E2  -4.184877721396028E1  -1.501745662451850E2  -2.793560866500540E1  -1.279754596033247E2  -2.007154583409975E1   5.223873262751045E1  
                        -4.164497621484875E1  -1.227393531543214E2  -2.553744675651245E1  -5.966506121162262E1  -1.927255721688912E1   2.178090824762243E1  -4.545738423877933E1  -3.425333048998142  
                        -2.819091989255409E1  -1.329852966027506E2  -1.956978024893209E1  -1.036430412328080E1  -1.060423318369622E1  -1.027299559078173E2  -4.107661326499655E1  -8.985328550130748E1  
                        -2.022371245098108E1   7.629510376816117E1  -4.570844687752111E1  -7.207628230327632  -4.079992526539599E1  -5.965458191918540E1  -2.670950936816804E1   9.590150063967519E1  
                        
 4.050471471471471E10   -1.149972675488262E1  -1.701750879017066E2  -4.252530000327544E1   3.073375605019695  -2.762590489458507E1  -1.726131758298296E2  -2.005861943297091E1  -1.549173557523959E2  
                        -4.234534058314743E1   3.144553934646541E1  -2.496731418827405E1  -5.352931550560519E1  -1.951179043040846E1   1.704876998832873E2  -4.560893414683537E1  -1.452037481508685E1  
                        -2.807660358083123E1  -1.763306832657713E2  -1.939444030726595E1   1.409326555491710E2  -1.069383733885564E1  -1.408149903945173E2  -4.133690820170520E1   6.172968603682407E1  
                        -1.975221210974109E1  -1.329591765028426E2  -4.550706624569941E1  -1.837537374006826E1  -4.092126204619039E1   8.932683077768240E1  -2.453302706780070E1   6.388878736558000E1  
                        
 4.057477477477477E10   -1.154863792658544E1   1.503946537003708E2  -4.294045272428900E1   1.596132775407573E2  -2.746894197509588E1   1.431507826185501E2  -1.998477858135204E1  -3.566651406371209  
                        -4.282587731693945E1  -1.759966301454776E2  -3.012922806638187E1  -7.109448592159197E1  -1.931724605563823E1  -3.767952734273812E1  -4.529223089912455E1  -2.431880303589696E1  
                        -2.784762650233961E1   1.388962731160919E2  -1.929704561794276E1  -6.730924850308163E1  -1.121737871506427E1  -1.760749235224778E2  -4.184430162723600E1  -1.425896784526699E2  
                        -1.986449078405451E1   1.836383266378567E1  -4.537912528452367E1  -2.814715476956714E1  -4.146294261239679E1  -1.166654928718457E2  -2.091886274035618E1   7.562739734024271E1  
                        
 4.064483483483483E10   -1.109184007961567E1   1.105182401093507E2  -4.328625354914951E1  -4.897667714098559E1  -2.798618803962176E1   9.776514932334652E1  -1.984823823873381E1   1.471215770469980E2  
                        -4.338552501505813E1  -2.264271369889182E1  -2.744375621370135E1  -8.221861397197441E1  -1.937813292731892E1   1.145509852619435E2  -4.537387335817887E1  -3.405337572516926E1  
                        -2.777382142027906E1   9.536719798370596E1  -1.926741533607490E1   8.266050371582178E1  -1.180642187814805E1   1.405536132980075E2  -4.176620345185285E1   1.087308897932012E1  
                        -1.979929968497457E1   1.700900234433318E2  -4.518374660904821E1  -3.942138249378701E1  -4.188750767874564E1   3.354770675825946E1  -2.123294159354271E1   9.570886379381260E1  
                        
 4.071489489489489E10   -1.185478363907486E1   7.875242226463482E1  -4.379441682433699E1   1.095843941815865E2  -2.762912827582608E1   5.605448406851011E1  -1.976405707951669E1  -6.007987646998620E1  
                        -4.412115353343121E1   1.335785534220898E2  -2.669081887116151E1  -7.429773640604799E1  -1.943554538970643E1  -9.588414884363419E1  -4.515877920400175E1  -4.481565939766577E1  
                        -2.772231919692934E1   5.126199074148084E1  -1.930535765526094E1  -1.246855963307184E2  -1.214783395031962E1   1.011366593866485E2  -4.198292217303558E1   1.631149157847003E2  
                        -1.995707202740327E1  -3.748174097556088E1  -4.544770717466121E1  -4.981531124461009E1  -4.246775100990028E1  -1.736390978981507E2  -2.512803053066116E1   9.793226219982762E1  
                        
 4.078495495495495E10   -1.307569658654554E1   4.296048491818748E1  -4.433360200485283E1  -9.423022371376383E1  -2.766487447389783E1   1.187400117492554E1  -1.982181049370227E1   9.304454271754165E1  
                        -4.402238642436957E1  -6.742167734591497E1  -2.713569202464726E1  -9.289847984305135E1  -1.916535180877506E1   5.808165027438408E1  -4.505625025210761E1  -5.861868632051018E1  
                        -2.777439967703238E1   7.040989279524097  -1.933643385764884E1   2.676208613432565E1  -1.289768221358274E1   6.085359002668491E1  -4.230585665672793E1  -4.583173462365603E1  
                        -1.978186403605204E1   1.145957641836518E2  -4.537924072285614E1  -6.164666150108147E1  -4.257939671296694E1  -2.115268601560647E1  -2.309303129251250E1   7.744250846925456E1  
                        
 4.085501501501502E10   -1.391445644266023E1   6.328483391754476  -4.399774555883509E1   6.147245509424061E1  -2.764976074563341E1  -3.448566824267697E1  -1.968757793352593E1  -1.161258524840489E2  
                        -4.435192726741418E1   8.779288324749570E1  -2.511814323264174E1  -1.080644385905701E2  -1.957614963174814E1  -1.508487121651220E2  -4.549097824142861E1  -6.911459081825331E1  
                        -2.770203108455666E1  -3.739377959311826E1  -1.932644266804143E1   1.766085981955729E2  -1.303244755776651E1   2.033086114960458E1  -4.319148087995178E1   1.071433827529013E2  
                        -1.972249478899820E1  -9.316949031765381E1  -4.541098583520199E1  -7.301816441834488E1  -4.329677528235757E1   1.343520162969355E2  -2.022064533654192E1   7.383724764663501E1  
                        
 4.092507507507507E10   -1.506155718758347E1  -3.735916894931872E1  -4.404078368686233E1  -1.458155514291680E2  -2.760953575911991E1  -7.422917538736321E1  -1.955267285305302E1   3.581537845181941E1  
                        -4.435281588911363E1  -1.163990387199697E2  -2.802843334805156E1  -1.200600788266875E2  -1.907030445419038E1   3.487243114405444  -4.527128836503877E1  -8.120325852980865E1  
                        -2.741678075760061E1  -8.140008924406349E1  -1.918257179867307E1  -3.109859175087398E1  -1.418647814415431E1  -1.052484792913404E1  -4.372331770101371E1  -9.451969068161360E1  
                        -1.958091648480945E1   5.786302852268937E1  -4.528105911462423E1  -8.548166320258102E1  -4.407322948043071E1  -6.437943935175586E1  -2.124058606002669E1   8.831701076344240E1  
                        
 4.099513513513513E10   -1.566250607616895E1  -8.258809392592826E1  -4.461714301854924E1   1.341249731000120E1  -2.724937390143976E1  -1.200348906344099E2  -1.962842859518333E1  -1.739063904837917E2  
                        -4.478850632060902E1   4.249800497519310E1  -2.804654224323878E1  -1.196002713652363E2  -1.896984846756073E1   1.527711454330355E2  -4.533846551394431E1  -9.271791581273190E1  
                        -2.721977870969046E1  -1.268029206111212E2  -1.916533621843535E1   1.199863975663810E2  -1.334066464320367E1  -5.843707716712598E1  -4.362168728305480E1   5.985392039341906E1  
                        -1.953662985977805E1  -1.501480937115408E2  -4.527860140648934E1  -9.663829296681691E1  -4.369020258882826E1   8.803936050082982E1  -2.411910164519513E1   1.049161132569732E2  
                        
 4.106519519519519E10   -1.547976698756329E1  -1.153507428411342E2  -4.430268159521162E1   1.708789581803527E2  -2.718237164392158E1  -1.657996288231147E2  -1.953647730809902E1  -2.202523074269580E1  
                        -4.420529706566579E1  -1.593343754933126E2  -2.956033410531535E1  -1.265658725836630E2  -1.889632157756482E1  -5.802407269220049E1  -4.501250752158997E1  -1.035861524289487E2  
                        -2.733324670840432E1  -1.708930413104012E2  -1.920157523540754E1  -8.860603207765976E1  -1.345303038029357E1  -9.114960429451824E1  -4.386751573798689E1  -1.467788629998198E2  
                        -1.953424270343888E1   1.212724992184652E-1  -4.528577749852137E1  -1.078502217547807E2  -4.393772252289153E1  -1.188257377605642E2  -2.344884065421384E1   7.463187674575281E1  
                        
 4.113525525525525E10   -1.620866350215992E1  -1.632075348357875E2  -4.408799518003792E1  -3.347587067529563E1  -2.716975687332316E1   1.481490786942346E2  -1.932951612889967E1   1.281096407540719E2  
                        -4.390212348694463E1  -4.659911908579905  -3.491535712536481E1  -6.638550184634653E1  -1.905751031967775E1   9.592521410815799E1  -4.540336438662713E1  -1.140362685206558E2  
                        -2.711963084067001E1   1.442992006690926E2  -1.920725484966263E1   6.305412803114663E1  -1.425213638674242E1  -1.254848428942061E2  -4.382240798699277E1   1.164411477149426E1  
                        -1.947911070579894E1   1.518724618426439E2  -4.527144214963469E1  -1.194794256980923E2  -4.384261819871174E1   4.121519829733684E1  -1.928785449181060E1   7.381830330951453E1  
                        
 4.120531531531532E10   -1.581723377017911E1   1.612393198448426E2  -4.394120193241372E1   1.255179566359134E2  -2.687810332969775E1   1.013588939202804E2  -1.964259776246608E1  -7.953127738114644E1  
                        -4.366418619386261E1   1.524517711012837E2  -2.937108472048808E1  -1.247626355792951E2  -1.891813170036122E1  -1.123037776319520E2  -4.512533432534595E1  -1.256235596112325E2  
                        -2.720994156475882E1   9.813153195529634E1  -1.917219651124082E1  -1.462343639883744E2  -1.342309242906917E1  -1.675910169541024E2  -4.368301779707147E1   1.633618387148700E2  
                        -1.946156001800437E1  -5.797763114601784E1  -4.527883903388696E1  -1.301906121391445E2  -4.398554502971650E1  -1.706557729373701E2  -1.860334670814595E1   9.144967431486859E1  
                        
 4.127537537537537E10   -1.535847856391849E1   1.276124444823877E2  -4.270475585336291E1  -7.924040211717450E1  -2.704641714544716E1   5.921287504714953E1  -1.944513680866391E1   7.247783026579467E1  
                        -4.299509025741315E1  -5.241294850451067E1  -2.529742943432274E1  -1.069950061474387E2  -1.904519291008386E1   3.738380144468747E1  -4.535843118782361E1  -1.365991307725384E2  
                        -2.730892133887289E1   5.329483398519262E1  -1.924584612240449E1   5.150740718694245  -1.380091428899929E1   1.635350530874571E2  -4.431406974996633E1  -3.623944594094478E1  
                        -1.970547342869602E1   9.453107583917641E1  -4.524522164466401E1  -1.414907007377458E2  -4.450442160393834E1  -1.168967039018747E1  -2.186627420620344E1   1.049125200363138E2  
                        
 4.134543543543543E10   -1.504716765797405E1   8.973334403788412E1  -4.257937203164165E1   7.554359739290493E1  -2.716163773729824E1   1.538347974355306E1  -1.961836972843074E1  -1.376354640038922E2  
                        -4.250607077917887E1   1.027284583481753E2  -2.796042454232770E1  -1.102114772232250E2  -1.881818659487173E1  -1.717968060127637E2  -4.506168164913422E1  -1.485554200689761E2  
                        -2.735599190554565E1   9.689640685981541  -1.926366851398302E1   1.574971965161316E2  -1.398867791909318E1   1.197862535907823E2  -4.380886388661924E1   1.208219611976778E2  
                        -1.961192594166301E1  -1.130946975740822E2  -4.521104854755285E1  -1.530876040196578E2  -4.432972610913451E1   1.479529274107952E2  -2.105965542690871E1   6.813463291728628E1  
                        
 4.141549549549549E10   -1.446914834765801E1   6.226295878715381E1  -4.185102469292896E1  -1.316858755484398E2  -2.728380150131736E1  -3.107216605251194E1  -1.961239089547041E1   1.503848375824041E1  
                        -4.169371508445909E1  -1.042368263639462E2  -2.944742395770289E1  -1.213350616062669E2  -1.938781772690800E1  -2.032540668325961E1  -4.515295918166388E1  -1.592481992046253E2  
                        -2.700538512952379E1  -3.584998601595612E1  -1.922538909265419E1  -5.124037653588385E1  -1.326494935813003E1   8.426619816258182E1  -4.347994194342515E1  -8.409703249201949E1  
                        -1.971863531679400E1   3.698310836944346E1  -4.510188192023558E1  -1.658327408202720E2  -4.407319906055319E1  -5.804889536983085E1  -1.880612223772648E1   7.782172198002435E1  
                        
 4.148555555555555E10   -1.439239380454023E1   3.274732425701460E1  -4.127901019529035E1   2.257719147915139E1  -2.751341040495511E1  -7.447462285284998E1  -1.959887237120412E1   1.665383504920251E2  
                        -4.099701822152042E1   5.042805907713225E1  -2.632479845625712E1  -1.327104067635897E2  -1.950881842711387E1   1.323064753352409E2  -4.506981922691095E1  -1.725971597519838E2  
                        -2.742216878642045E1  -8.024687441551998E1  -1.934726550785777E1   9.776539429562426E1  -1.501896639088487E1   5.084089383488735E1  -4.292389781214136E1   6.990975280085810E1  
                        -1.975435001721074E1  -1.705820260120781E2  -4.493848334753184E1  -1.772607599996694E2  -4.337231049986050E1   9.721845615390328E1  -1.905192112039300E1   9.149581384657709E1  
                        
 4.155561561561562E10   -1.500515396419521E1   9.639816224475328E-1  -4.067396565001258E1   1.738029033166809E2  -2.720903979383060E1  -1.178266459769286E2  -1.952406038035008E1  -4.305433500777733E1  
                        -4.046385212827097E1  -1.569619513329602E2  -3.003171859814783E1  -1.221564831495052E2  -1.924755178341098E1  -7.587158330772122E1  -4.514078195600923E1   1.760161158145527E2  
                        -2.716227867123023E1  -1.241265765960830E2  -1.928203671000280E1  -1.100919980634365E2  -1.488306454732784E1   9.083861596572577  -4.274122512710098E1  -1.352575181991192E2  
                        -1.972398079400799E1  -1.815416644687796E1  -4.507039375356185E1   1.707666874011339E2  -4.310090547115048E1  -1.058106317216682E2  -2.084865254285585E1   9.597293504683606E1  
                        
 4.162567567567567E10   -1.729400215236467E1  -2.769211232304979E1  -4.023841625457463E1  -3.376681106235945E1  -2.707202707382986E1  -1.647163449783904E2  -1.958651039033759E1   1.090493346814066E2  
                        -4.029178584822382E1  -5.767933934139169  -2.572652855911424E1  -1.539661553973105E2  -1.951747047245264E1   7.697054442780363E1  -4.487651370003425E1   1.638209304196714E2  
                        -2.730285417987072E1  -1.693022182354632E2  -1.936228701665303E1   4.068736038448029E1  -1.467293035365946E1  -2.564148702076082E1  -4.191023192151811E1   1.961807993939021E1  
                        -1.980904270710610E1   1.334373962048981E2  -4.514942016404819E1   1.615394743244967E2  -4.202200416808740E1   4.920651560649180E1  -2.118348942699044E1   7.390232682403727E1  
                        
 4.169573573573573E10   -1.959955909723118E1  -7.473012062724023E1  -3.961061178994009E1   1.193492310388764E2  -2.733253674647265E1   1.533096645656142E2  -1.954099339293886E1  -9.976995424789597E1  
                        -3.949178912545830E1   1.487865092171025E2  -2.637916048407748E1  -1.443166781619696E2  -1.929193905703296E1  -1.308003823236343E2  -4.481043513082622E1   1.526165286349821E2  
                        -2.714361599461477E1   1.466214569529116E2  -1.956126961276488E1  -1.674621166679738E2  -1.510988618173989E1  -7.160310122929606E1  -4.134681589216191E1   1.718279505872337E2  
                        -1.982779604195380E1  -7.459392470826153E1  -4.492413043928837E1   1.487935693751873E2  -4.153322637830864E1  -1.565254550685660E2  -1.837713576726895E1   6.493579236906670E1  
                        
 4.176579579579579E10   -1.900583243976487E1  -1.353407019920493E2  -3.872170186825014E1  -9.080128478738625E1  -2.662622451896571E1   1.072213818853252E2  -1.970075314538043E1   5.076207918990161E1  
                        -3.872502828956462E1  -6.048062269727468E1  -2.755361997288510E1  -1.391715045249690E2  -1.920685375594029E1   2.017652463905984E1  -4.486516734212141E1   1.407070262843078E2  
                        -2.695590723018323E1   1.019473027573517E2  -1.950888314757306E1  -1.563095668975103E1  -1.407362507506272E1  -1.098232617410164E2  -4.091889651073741E1  -3.603645224178650E1  
                        -1.966193470557429E1   7.730083487121419E1  -4.484300334220426E1   1.372926862096769E2  -4.057467195769137E1  -4.459200833371832  -1.870986475187947E1   8.072221896519130E1  
                        
 4.183585585585585E10   -1.710155252529872E1   1.730357645917430E2  -3.845041664561891E1   5.925539888387898E1  -2.697987860558564E1   6.105049156501413E1  -1.958362872559001E1  -1.560550928532558E2  
                        -3.832742282672602E1   8.966975278140069E1  -2.545949687574671E1  -1.670577449588352E2  -1.939295677620131E1   1.711606370003738E2  -4.475147355318840E1   1.303779078453918E2  
                        -2.708974758939494E1   5.743954351142150E1  -1.950995374822251E1   1.357712635362630E2  -1.395034107708215E1  -1.437879016989012E2  -4.055943514475846E1   1.171067081571650E2  
                        -1.971028794204025E1  -1.313765747014442E2  -4.463195167156399E1   1.255649158191848E2  -4.061299512079654E1   1.462439656448843E2  -2.100609748830173E1   9.844084986811706E1  
                        
 4.190591591591591E10   -1.485289962516247E1   1.393635735451726E2  -3.801114834030283E1  -1.492033197681870E2  -2.683806759594528E1   1.773592303853215E1  -1.976333190599053E1  -6.929843872807545  
                        -3.785588750412256E1  -1.186011966557349E2  -2.800705384554587E1  -1.159601230279718E2  -1.921401781552796E1  -3.613630427647257E1  -4.481153796757830E1   1.188833452977331E2  
                        -2.691351745225813E1   1.226136576282282E1  -1.963605136372038E1  -7.194879439988709E1  -1.456854443173009E1   1.710246195080983E2  -4.019440590996349E1  -8.993436927005666E1  
                        -1.978098619386166E1   2.015228252234144E1  -4.495938070446576E1   1.134979408223161E2  -3.983841065190809E1  -5.870125972318737E1  -2.120036074599840E1   7.024319201647248E1  
                        
 4.197597597597598E10   -1.409615814132774E1   1.069458578310560E2  -3.734616488007822E1   1.872986601722210  -2.651534584595166E1  -2.990849030931051E1  -2.003479703624398E1   1.461110591923623E2  
                        -3.719358656032161E1   3.119115569835860E1  -2.768788540991190E1  -1.435079544144714E2  -1.953010531218631E1   1.146251840503065E2  -4.472794039805936E1   1.077660134599845E2  
                        -2.692822671656768E1  -3.320055194077557E1  -1.958233385464008E1   7.968870815653314E1  -1.372498033661003E1   1.304920254428592E2  -3.993545129441370E1   6.230560201939743E1  
                        -1.987846769989810E1   1.716120799614149E2  -4.472094506140261E1   1.014630165393640E2  -3.947502576485405E1   9.008843799160073E1  -1.924013829247274E1   6.276624462247749E1  
                        
 4.204603603603603E10   -1.462156131663303E1   7.644748446744993E1  -3.711055298925220E1   1.521354288448632E2  -2.701956174148687E1  -7.263972685585097E1  -1.985147444153229E1  -6.342078890558850E1  
                        -3.724772352630925E1  -1.774876933922141E2  -2.461167042604022E1  -1.587044005532890E2  -1.977396057139388E1  -9.497884949544776E1  -4.433840677200823E1   9.697453666100664E1  
                        -2.711396750959317E1  -7.673961669002519E1  -1.981149052546187E1  -1.291426527913578E2  -1.436615867133559E1   9.966277839962257E1  -3.913748145169029E1  -1.435142690017214E2  
                        -1.991868290929479E1  -3.586636286198420E1  -4.443841247037901E1   9.125669304021473E1  -3.907945798005548E1  -1.142071705881281E2  -2.047058179485532E1   7.644505509981501E1  
                        
 4.211609609609609E10   -1.450918384375651E1   4.515949240247782E1  -3.676997066860964E1  -5.726090454983320E1  -2.687523098010056E1  -1.154277249327851E2  -2.000830810192629E1   8.918939343514994E1  
                        -3.674321231945807E1  -2.613353024147087E1  -2.492699684787964E1  -1.452258310488852E2  -1.964948624853790E1   5.853888313526511E1  -4.438693066438861E1   8.331861647578796E1  
                        -2.676164556064699E1  -1.193186901773341E2  -1.959986157297999E1   2.287597742229654E1  -1.507847146646954E1   4.809167210534717E1  -3.808105485774209E1   5.367744247820233  
                        -2.002644435526112E1   1.152992723066570E2  -4.422044639549055E1   7.813704641691641E1  -3.806571582144908E1   3.547505458882354E1  -2.357847630956432E1   7.383618488696482E1  
                        
 4.218615615615615E10   -1.563594682724893E1   1.030853307490219E1  -3.619821476558646E1   9.218702257256123E1  -2.676912312247644E1  -1.617745969187875E2  -1.979473821018136E1  -1.182732753356245E2  
                        -3.630403677118397E1   1.232532224815145E2  -2.970975865096430E1   1.722930040091801E2  -1.976663642338403E1  -1.496251238977208E2  -4.381291348984018E1   7.261261747820086E1  
                        -2.684628492975041E1  -1.662221930913757E2  -1.950701794936883E1   1.750943223913306E2  -1.471680664411961E1   1.993698915651772E1  -3.795959306233287E1   1.545261167737705E2  
                        -1.988280882714064E1  -9.091830947759931E1  -4.404113143494261E1   6.550858643152132E1  -3.816468130667921E1  -1.745185354617666E2  -2.300542774077527E1   5.841579859382566E1  
                        
 4.225621621621621E10   -1.688902719115022E1  -2.844065527709769E1  -3.590326636672348E1  -1.191746765040810E2  -2.674007564889257E1   1.541791127253063E2  -1.982048099418684E1   3.315078764966103E1  
                        -3.594586083639074E1  -8.625094627512155E1  -2.968177056007894E1   1.576329690723012E2  -1.965242545768775E1   3.418281698072174  -4.378944392495389E1   5.775748941135011E1  
                        -2.667681520548635E1   1.517711854544048E2  -1.967637611813315E1  -3.394413711996167E1  -1.605388948626880E1  -1.658239847942047E1  -3.736196730989013E1  -5.387791771796782E1  
                        -1.978691824562205E1   6.059107374206587E1  -4.397918088007548E1   5.275575116321283E1  -3.752581394131944E1  -2.127473553325563E1  -2.082480460923170E1   5.115230578152125E1  
                        
 4.232627627627628E10   -1.820504537961698E1  -6.576031601123272E1  -3.568851417383547E1   3.203814493971298E1  -2.648359028643467E1   1.106825140430975E2  -1.972039964845537E1  -1.756687039760291E2  
                        -3.566571134132867E1   6.418250402165349E1  -3.174406846572468E1  -1.683233187011775E2  -1.959850026912365E1   1.554425282250266E2  -4.385358909337143E1   4.547597291699243E1  
                        -2.626489813498942E1   1.044908896893428E2  -1.953268791883127E1   1.171754307482056E2  -1.561811989668004E1  -6.882474422018210E1  -3.674509230978222E1   9.414727391424755E1  
                        -2.001180195353722E1  -1.485498944994807E2  -4.396641931601336E1   4.134381347770281E1  -3.712166798467968E1   1.307917648059864E2  -2.200442657920382E1   5.384733099448663E1  
                        
 4.239633633633633E10   -2.022269749331661E1  -1.059324661077849E2  -3.526146285382216E1   1.795907761512552E2  -2.625896466369566E1   6.421070763278242E1  -1.986148345855735E1  -2.454266678760974E1  
                        -3.528132914951191E1  -1.467939638661895E2  -4.557304769197954E1   3.893401247490021E1  -1.894341480916846E1  -5.334301861017239E1  -4.372634631753056E1   3.275724524940431E1  
                        -2.619647683374780E1   5.895108415564293E1  -1.954260903387505E1  -8.964920578644086E1  -1.576704250818274E1  -9.344792096526000E1  -3.683587403625666E1  -1.163928604721786E2  
                        -1.980433692579187E1   3.799724293760209  -4.369553210260070E1   2.832558049170235E1  -3.691006500446961E1  -8.325163146187880E1  -2.335344715237326E1   5.902619544207182E1  
                        
 4.246639639639639E10   -2.235533092393407E1  -1.646539326446429E2  -3.521761845701962E1  -3.046546832270391E1  -2.624551942022353E1   2.056281287635078E1  -1.969903132392625E1   1.268242952065738E2  
                        -3.513447474693962E1   2.987492023164327  -3.913989895521527E1  -1.613798800583861E2  -1.906631922158998E1   9.765476759564876E1  -4.373424596856895E1   2.030764498998660E1  
                        -2.629032722896198E1   1.236570151464756E1  -1.951087824537370E1   6.069215366498091E1  -1.711404099770792E1  -1.454061056922705E2  -3.646331218695963E1   3.620960817268998E1  
                        -1.968255970317630E1   1.540559723124509E2  -4.357541650030629E1   1.447751898962768E1  -3.650667318255429E1   6.867728700889697E1  -2.660669684294926E1   4.395778381782222E1  
                        
 4.253645645645645E10   -2.126470209117868E1   1.400092924950885E2  -3.471720073055346E1   1.193954879953338E2  -2.570413325146703E1  -2.890994901052910E1  -1.989597502174158E1  -8.191389741450550E1  
                        -3.501255943315238E1   1.533433730077965E2  -3.088009328767231E1  -1.529865833391401E2  -1.961128186097054E1  -1.119707715254918E2  -4.349489413462871E1   7.405703532552863  
                        -2.593142119207623E1  -3.281224963547322E1  -1.956374472388185E1  -1.488304389655094E2  -1.621096336471397E1   1.766062070907062E2  -3.624173357625124E1  -1.757516842204635E2  
                        -1.968324850922833E1  -5.395138324850730E1  -4.365431387110241E1   1.881492356631998  -3.622000608341687E1  -1.434094364295578E2  -2.378018576332442E1   2.310412338834098E1  
                        
 4.260651651651651E10   -1.869650548104609E1   9.298027742680534E1  -3.472139948149413E1  -9.135720840825455E1  -2.564295279011433E1  -7.447708991448855E1  -1.983364974524160E1   6.918838199690367E1  
                        -3.462997382354333E1  -5.799362372724890E1  -3.825465612339771E1  -1.224234030543370E2  -1.928980823661026E1   3.965206614450565E1  -4.357203879977246E1  -5.866121662230076  
                        -2.579696245877389E1  -7.893677650889255E1  -1.953690504033914E1   2.745329016340448  -1.792402701466697E1   1.427494377752508E2  -3.605615318221867E1  -2.680349485873177E1  
                        -1.983875795159040E1   9.657510320105983E1  -4.336453973102736E1  -1.078653021004369E1  -3.595056776932532E1   6.368556545831550  -2.251414475341210E1   3.386609531176598E1  
                        
 4.267657657657658E10   -1.591618159680916E1   6.802453657675740E1  -3.457458421429896E1   5.653387345777054E1  -2.556210033715212E1  -1.210624774396152E2  -1.992540258745893E1  -1.380402829021326E2  
                        -3.437819487213285E1   9.079681587860725E1  -3.077067204267726E1   1.571072271500767E2  -1.946414684856497E1  -1.686557211543126E2  -4.321998285751216E1  -1.819722874254415E1  
                        -2.583233598705317E1  -1.253238403805718E2  -1.964823506173164E1   1.535243802942354E2  -1.746413160551306E1   9.416012346982519E1  -3.593603974671468E1   1.232780386958845E2  
                        -1.991384893993004E1  -1.111769906486495E2  -4.339390996774583E1  -2.373337749235363E1  -3.559931480399925E1   1.573290329712368E2  -2.373123629613986E1   2.353997532207333E1  
                        
 4.274663663663664E10   -1.608358641446591E1   4.807030005140984E1  -3.489115673997062E1  -1.536473089362624E2  -2.620177834913387E1  -1.675221020855398E2  -1.989015106622808E1   1.142210687290712E1  
                        -3.455627388668490E1  -1.206550039800609E2  -3.652564894295798E1   1.391315892932539E2  -1.940439397458157E1  -1.726300895410355E1  -4.309776840615965E1  -3.324075252578817E1  
                        -2.577872200389584E1  -1.719700062006582E2  -1.957254563685231E1  -5.502196399901626E1  -1.640113052690182E1   6.595986381195199E1  -3.535277407421746E1  -8.685938876225249E1  
                        -2.004853932180432E1   4.081213743355399E1  -4.307104081001010E1  -3.684143362706875E1  -3.535128883316366E1  -5.341431865713513E1  -2.623512931619341E1   2.080026607565022E1  
                        
 4.281669669669669E10   -1.613691767775580E1   2.834478751114290E1  -3.455156669911985E1  -3.203902441822721  -2.579620536868904E1   1.507780402749908E2  -1.996098260157431E1   1.640813910381719E2  
                        -3.431410087714057E1   2.896961137430527E1  -3.891528995793733E1   5.867050140256977E1  -1.930553663534210E1   1.324544202865966E2  -4.286823587324787E1  -4.561347057733262E1  
                        -2.567073457170512E1   1.436228606079375E2  -1.953989604524860E1   9.671034624915906E1  -1.769757451628198E1   2.930941756145120E1  -3.514735128461668E1   6.184097941775934E1  
                        -1.999707423304991E1  -1.687465425650913E2  -4.306319583442173E1  -5.212840379673622E1  -3.506959476066474E1   9.366361338560688E1  -2.496326451675072E1   2.593456430347497  
                        
 4.288675675675675E10   -1.774789809577278E1   1.511484719181465E1  -3.433628643325945E1   1.455362563491837E2  -2.550168442892926E1   1.017716451997321E2  -2.006684372158045E1  -4.426345293815764E1  
                        -3.438437815507601E1   1.776482625974835E2  -3.578868662196400E1   1.349429674358878E2  -1.997953775492497E1  -7.506776832144065E1  -4.274653676829918E1  -6.115728047920433E1  
                        -2.568274254740908E1   9.459542172057824E1  -1.977037783438794E1  -1.127396961679347E2  -1.734150024228405E1  -1.080974103422030E1  -3.510765539382409E1  -1.479825032373979E2  
                        -2.010631211543631E1  -1.603769050541741E1  -4.312219094158932E1  -6.511215998652790E1  -3.523132306253878E1  -1.155159116773840E2  -2.103067948686491E1   6.061513288120688  
                        
 4.295681681681681E10   -2.041852188824291E1  -7.676314805322384  -3.444726251495163E1  -6.558998375821359E1  -2.575809492123461E1   5.516231975548767E1  -2.018937530949804E1   1.066840152659664E2  
                        -3.421567413255121E1  -3.142561909716832E1  -4.838820957437466E1  -4.869379182111540  -1.966144333921159E1   7.954187372114652E1  -4.309266856837854E1  -7.355617158251050E1  
                        -2.583857513658437E1   4.984706936992653E1  -1.963824880736049E1   3.931548835535183E1  -1.686028778127501E1  -2.955609232610002E1  -3.532497291250019E1  -2.691721354821776E-1  
                        -2.005151910172306E1   1.355392787394604E2  -4.312649433843970E1  -7.979768847167001E1  -3.553298296739539E1   3.169531825198849E1  -2.263017891642716E1   1.606828774986940E1  
                        
 4.302687687687688E10   -2.448815452206469E1  -4.191885739947674E1  -3.442093042686507E1   8.481921711314963E1  -2.549622083582079E1   1.064372376149719E1  -1.996925682771295E1  -1.016246016108710E2  
                        -3.418285494708230E1   1.166899483657753E2  -3.637072746442200E1   5.836616663871256E1  -1.975740577441503E1  -1.307425932995693E2  -4.316721951224601E1  -8.907392052777405E1  
                        -2.586204120502535E1   4.852491505950537  -1.992662617077216E1  -1.708797612156892E2  -1.832892635425105E1  -7.431612518761065E1  -3.545728675927654E1   1.496819228466396E2  
                        -1.999445648443328E1  -7.345588766609012E1  -4.360490296544471E1  -9.395407286098303E1  -3.557116843936191E1  -1.769974036225947E2  -2.503538162110581E1  -1.228629567587778E1  
                        
 4.309693693693694E10   -2.916017235401521E1  -1.322351168720417E2  -3.434675047341759E1  -1.260152108530103E2  -2.579450788399986E1  -3.879721858989235E1  -2.009678617915262E1   4.960228860083697E1  
                        -3.430226827087672E1  -9.348252634511526E1  -3.579702843118039E1   9.537868442211142E1  -1.996387843656158E1   2.056329466516555E1  -4.330919678510350E1  -1.010238037046754E2  
                        -2.568916874714939E1  -4.342769292566246E1  -1.995502816872496E1  -1.844631700767989E1  -1.703705164176993E1  -1.124604930565267E2  -3.517464025534819E1  -6.058478895100523E1  
                        -2.014868178659613E1   7.779544024431559E1  -4.353568094304841E1  -1.055451783149479E2  -3.550237213588190E1  -2.568341010818279E1  -2.111203987936297E1  -2.546744563343479E1  
                        
 4.316699699699699E10   -2.361421758408197E1   1.688538804397225E2  -3.450533416084809E1   2.202329571484991E1  -2.581100775454602E1  -8.577345325495782E1  -2.010157903332308E1  -1.596233764582415E2  
                        -3.426857163446503E1   5.632747466074923E1  -5.011453023582678E1  -1.222299905499185E2  -1.958392319581165E1   1.723829584520184E2  -4.339779991960065E1  -1.157151106614465E2  
                        -2.591111466716770E1  -8.871289717490643E1  -2.000319327686020E1   1.340282070926789E2  -1.716185305558922E1  -1.381249925381287E2  -3.551885950553866E1   8.984502947229603E1  
                        -2.019000253592387E1  -1.299151591183298E2  -4.345556060174061E1  -1.184629892070907E2  -3.535174001140351E1   1.235574959499592E2  -1.955490349316592E1  -2.389034017756375  
                        
 4.323705705705705E10   -1.900545152305394E1   1.331483502319451E2  -3.469029659378717E1   1.704023254019642E2  -2.587573865093606E1  -1.303172191132152E2  -2.023724264570972E1  -7.179123858613745  
                        -3.464220826085717E1  -1.550386949703222E2  -3.604280138290803E1   3.274476275825048E1  -1.998903805386419E1  -3.955929239543539E1  -4.322471916381648E1  -1.288526180389706E2  
                        -2.605298056175893E1  -1.352345905048204E2  -1.997523313530176E1  -7.443224966709195E1  -1.832338947082159E1   1.645323996176575E2  -3.533701337758440E1  -1.192143065589288E2  
                        -2.013210458910951E1   2.015909145107091E1  -4.340298112874268E1  -1.324008143528577E2  -3.526421098095073E1  -8.838742142038005E1  -2.151055884241026E1   4.083231030827249  
                        
 4.330711711711711E10   -1.640528366525269E1   1.111824301136399E2  -3.474331838442210E1  -3.817162246268390E1  -2.578533570131527E1  -1.798377470763404E2  -2.029986308638942E1   1.439353670267961E2  
                        -3.462098276903114E1  -4.557640354464654  -3.260864534217425E1   1.317723814908001E2  -1.988626717097088E1   1.140926759514253E2  -4.362071680992960E1  -1.443199976951581E2  
                        -2.608951119999200E1   1.778624321171754E2  -2.037862140653002E1   7.765552155186455E1  -1.531378971946242E1   1.303431730388050E2  -3.523044734710112E1   2.896773993375073E1  
                        -2.049068216023323E1   1.723655609953689E2  -4.372916181081410E1  -1.469515065252283E2  -3.563713372917156E1   6.142145476325606E1  -2.366807507590889E1  -1.518013175193685E1  
                        
 4.337717717717717E10   -1.543822500617554E1   7.912687209370500E1  -3.482784965984116E1   1.116195592746515E2  -2.640239730416282E1   1.356049940273869E2  -2.056609543085272E1  -6.524290925599441E1  
                        -3.464874947372491E1   1.434750484270466E2  -4.709367753359675E1  -6.818143748963216E1  -1.997352318697244E1  -9.590296272006560E1  -4.372939035326774E1  -1.562475581391985E2  
                        -2.650008893472997E1   1.317492582991116E2  -2.010200140582690E1  -1.303320173081871E2  -1.731864206929167E1   9.289040048733675E1  -3.543389282686292E1   1.780474612161029E2  
                        -2.038104713826334E1  -3.464238373950550E1  -4.399577146472955E1  -1.593351648128343E2  -3.588120497089786E1  -1.507814097515433E2  -1.966143431918985E1  -2.493166229429530E1  
                        
 4.344723723723724E10   -1.510830418434534E1   4.376808656446182E1  -3.502555301874364E1  -9.846378012958232E1  -2.689751746216433E1   8.727884343442766E1  -2.040647354782393E1   8.788721031447533E1  
                        -3.528070907892977E1  -6.713782071763154E1  -3.658089452112078E1   3.278750878096644E1  -2.071712825412037E1   5.679976216103838E1  -4.383507565943966E1  -1.704808056170666E2  
                        -2.676295189286147E1   8.542157858622579E1  -2.030480182706472E1   2.126215586893820E1  -1.515916304832097E1   4.627563294024873E1  -3.560309352785226E1  -3.163238222986089E1  
                        -2.059326302264786E1   1.160595579041768E2  -4.406954121417395E1  -1.728740303965722E2  -3.598510543877523E1   2.761442051898190E-1  -1.881840166083980E1  -6.131330023367327  
                        
 4.351729729729730E10   -1.464270983530503E1   1.509643782034383E1  -3.528354571933649E1   5.176967049779448E1  -2.737238964205352E1   4.410308137231230E1  -2.057397434222867E1  -1.206716359413385E2  
                        -3.547966958471431E1   8.440540094299313E1  -3.037479901722044E1   7.140010748428992E1  -2.030144608911031E1  -1.513389349899071E2  -4.446484593931200E1   1.765641146054793E2  
                        -2.726388764480820E1   4.121681504951136E1  -2.031973715352783E1   1.741780410885219E2  -1.508924108369518E1   1.756460598934294E1  -3.599459779484702E1   1.174008117686144E2  
                        -2.062188432561807E1  -9.158715981454752E1  -4.432014280348518E1   1.756396511596251E2  -3.642166004561174E1   1.490608460121486E2  -2.049303185805536E1   9.406061082163598E-1  
                        
 4.358735735735735E10   -1.556554048567375E1  -1.973598895396028E1  -3.552957755467860E1  -1.588179386275724E2  -2.700409698300358E1  -1.786269823545489  -2.053328703039367E1   3.183760822919896E1  
                        -3.560064869217347E1  -1.263750544428230E2  -3.416693891850676E1   9.187348545915150  -2.055770895641944E1   2.458197764665569E-1  -4.481337133868989E1   1.616770688453132E2  
                        -2.714084299468061E1  -5.405347735061525  -2.037390422705282E1  -3.365009611522052E1  -1.646226296873504E1  -2.919732602773554E1  -3.618550900480845E1  -9.114150582232966E1  
                        -2.081953340147788E1   6.121778633646976E1  -4.463953953570783E1   1.619990511086344E2  -3.634873376594317E1  -5.774170329382609E1  -2.369273334823894E1  -1.410607560167123E1  
                        
 4.365741741741741E10   -1.598313364624423E1  -5.850305453352890E1  -3.593825777203347E1  -7.530474424616568  -2.774033723227673E1  -4.821795558854281E1  -2.053985187471152E1  -1.764961970599142E2  
                        -3.591807899254734E1   2.430667951220415E1  -3.182349250565780E1   1.160107619809805  -2.077110076135980E1   1.535113335212404E2  -4.515849616877348E1   1.514076222046777E2  
                        -2.768850583108850E1  -5.061067167675439E1  -2.056337991060974E1   1.187105050691663E2  -1.344565010029456E1  -6.738454630675008E1  -3.622596041798271E1   5.873215157257531E1  
                        -2.083830260525119E1  -1.470699882908816E2  -4.514959740844230E1   1.509806246078352E2  -3.660917119739156E1   9.012385019296454E1  -2.044109802309691E1  -1.955212955803297E1  
                        
 4.372747747747747E10   -1.775008091382220E1  -1.025170694675030E2  -3.607626870382244E1   1.450854137548570E2  -2.771848576267382E1  -9.343825967403021E1  -2.066807923531543E1  -2.499527034725848E1  
                        -3.605203954058927E1   1.771421438594178E2  -3.635465906733274E1  -6.064083382097282E-2  -2.056299861479651E1  -5.350391628871809E1  -4.519743100220762E1   1.368556620160810E2  
                        -2.785382027398842E1  -9.425660538339967E1  -2.051695931916223E1  -8.773691919042190E1  -1.455997722929028E1  -9.994828132320006E1  -3.674076871588612E1  -1.505896064523246E2  
                        -2.066631279704799E1   6.890883784183555  -4.510780040313848E1   1.378718150430058E2  -3.658976313635819E1  -1.167963335573500E2  -1.789516574807597E1  -3.184989757641008  
                        
 4.379753753753754E10   -1.781568222052910E1  -1.662453592475429E2  -3.611534812378084E1  -6.491478669279667E1  -2.769440402986376E1  -1.363603974911641E2  -2.073564254412168E1   1.253152116147240E2  
                        -3.603076126684992E1  -3.437964025120878E1  -3.132172834028341E1  -2.715014091172713E1  -2.037762258508959E1   9.481010410151467E1  -4.529948297749458E1   1.250824384846769E2  
                        -2.768270748567284E1  -1.400429559883468E2  -2.056507964427861E1   6.339382542384440E1  -1.410029347117015E1  -1.554094181380895E2  -3.688510781271849E1   2.806748684762829  
                        -2.067847558261516E1   1.579641363247178E2  -4.518257705655316E1   1.278094861792939E2  -3.661326769169413E1   3.631210499098265E1  -1.941931510957251E1   2.122934031302088E1  
                        
 4.386759759759760E10   -1.577917788085282E1   1.431275510681330E2  -3.657358739082113E1   8.431593165336483E1  -2.797278696744826E1   1.743451760241219E2  -2.075776897525500E1  -8.246556488018544E1  
                        -3.647114877204885E1   1.157267776333080E2  -3.038593693450629E1  -2.966871684634791  -2.043473435316243E1  -1.125351777069830E2  -4.536899876190095E1   1.135348308038108E2  
                        -2.792741450962171E1   1.731023400880224E2  -2.071114643423736E1  -1.447770240916408E2  -1.308881254721526E1   1.731219591693866E2  -3.717390807853882E1   1.530276773401369E2  
                        -2.079626959036870E1  -5.090342519325817E1  -4.558699164237125E1   1.143398553908128E2  -3.679096165034807E1  -1.756997632343455E2  -2.167322828496993E1   1.036204024832485E1  
                        
 4.393765765765765E10   -1.333629493267966E1   9.799970471211110E1  -3.717035071308330E1  -1.225101357545867E2  -2.858731312329533E1   1.295092326007781E2  -2.075557444539417E1   6.870281203939645E1  
                        -3.670389863816150E1  -9.383924573462578E1  -3.174690896410636E1  -2.133759192861903  -2.058134122816259E1   3.675660652616624E1  -4.554096400926770E1   9.913404091022018E1  
                        -2.866271863144202E1   1.284733970491979E2  -2.061633800648708E1   9.471011045368323  -1.434776796583274E1   1.244913229626396E2  -3.714824344112442E1  -5.800021138617977E1  
                        -2.081155454888415E1   1.008328811659336E2  -4.554246336029527E1   1.022687894392320E2  -3.707235796223488E1  -2.633596356882294E1  -2.052803944376327E1  -8.105152679628660  
                        
 4.400771771771771E10   -1.157323824710739E1   6.413350657318205E1  -3.722018103846496E1   2.729817626097355E1  -2.862232807919828E1   8.405554669743299E1  -2.114392098258623E1  -1.394760834124967E2  
                        -3.699807694426621E1   5.552368618522774E1  -2.694995846818135E1  -4.365702693786037E1  -2.089442529315749E1  -1.719147304919189E2  -4.564990872251639E1   8.590151799524617E1  
                        -2.872727254027219E1   8.390707167919210E1  -2.067651081756856E1   1.590070706797206E2  -1.264357917985879E1   7.565639272069537E1  -3.745220523526835E1   9.375894847392074E1  
                        -2.109303970238640E1  -1.086546781670071E2  -4.590281069060180E1   8.785617804181018E1  -3.716306591770993E1   1.239658830637373E2  -1.884643618476453E1   1.092007808569480E1  
                        
 4.407777777777777E10   -1.140114010013733E1   3.641918231558876E1  -3.762745517150019E1   1.793421031960746E2  -2.898874941532678E1   3.779610036550923E1  -2.121790341577535E1   1.382670317355222E1  
                        -3.753535104140891E1  -1.550202886411698E2  -2.551775267888185E1  -3.659111022432044E1  -2.054498219428863E1  -2.221292076836483E1  -4.648441919937802E1   7.219374625859206E1  
                        -2.917981434170149E1   3.747890562739860E1  -2.078814357506825E1  -4.919376216737883E1  -1.267359692603700E1   4.496954247991872E1  -3.757655118375131E1  -1.146181270252224E2  
                        -2.111975809499986E1   4.538109357110693E1  -4.644556135916287E1   7.531154374598474E1  -3.756285623269507E1  -8.696561378573800E1  -1.954089593787678E1   3.260776068678909E1  
                        
 4.414783783783784E10   -1.218013593263617E1  -2.721998216525519  -3.783756423665022E1  -2.643510482210752E1  -2.956162465502236E1  -5.193078021728404  -2.119008661527532E1   1.668492103117594E2  
                        -3.801379578775740E1  -4.370941063584422E-1  -2.761776981502188E1  -5.042977439213446E1  -2.106826894875198E1   1.334043660028228E2  -4.676149183062744E1   6.463538104829672E1  
                        -2.959548320143831E1  -3.866257054410866  -2.081817111130559E1   1.042676483194440E2  -1.273872744368285E1  -8.923412909586451  -3.819899183739739E1   3.531382799311891E1  
                        -2.129484849765775E1  -1.617636057013440E2  -4.675970537734249E1   6.531346579539330E1  -3.839933666094836E1   6.610882821341627E1  -2.232197730847016E1   3.870699746383730E1  
                        
 4.421789789789790E10   -1.291755547149461E1  -3.978110137911322E1  -3.793455502286564E1   1.239747750394994E2  -2.994669334647180E1  -4.451463059916642E1  -2.101623221042073E1  -4.131788073035016E1  
                        -3.790383001855496E1   1.512084463639769E2  -2.737830089410333E1  -5.861469475287709E1  -2.077689724137776E1  -7.508875179932902E1  -4.716014547534225E1   5.239802329775078E1  
                        -2.977373834711949E1  -4.749725295199279E1  -2.071352081015700E1  -1.032326023729823E2  -1.179560746162290E1  -4.334151765612099E1  -3.844243507965036E1  -1.707843845342683E2  
                        -2.110965557176143E1  -8.160234305650759  -4.684755922294763E1   5.396026186660325E1  -3.866750875426506E1  -1.380023073896261E2  -2.250062816378878E1   1.718151087924677E1  
                        
 4.428795795795795E10   -1.477040777270404E1  -8.770781815555930E1  -3.820441130610590E1  -8.516436774469136E1  -2.938272076245237E1  -9.326450259855629E1  -2.113912746523230E1   1.113169210283491E2  
                        -3.829712537977076E1  -5.810682029496757E1  -2.542823345886920E1  -5.218385041355357E1  -2.135136416028556E1   7.559102117494055E1  -4.698371660897103E1   4.041917609741323E1  
                        -2.954958961125530E1  -9.338149501771089E1  -2.094382741418693E1   4.839213264925071E1  -1.273595924225707E1  -8.117765013568166E1  -3.876015444139701E1  -1.966494636751024E1  
                        -2.123091940440436E1   1.415800472249554E2  -4.747649450649947E1   4.150220476703672E1  -3.882843332849499E1   1.283737749192165E1  -1.932980038150074E1   2.209912915036788E1  
                        
 4.435801801801801E10   -1.362813784714731E1  -1.425594744632448E2  -3.851661481843198E1   6.803115100792623E1  -2.984473002801592E1  -1.360311926827270E2  -2.113623123921751E1  -9.591519832878235E1  
                        -3.850897031810196E1   9.498393362179432E1  -2.781167143024453E1  -6.763816164560264E1  -2.111507242686383E1  -1.298103475048501E2  -4.742831851843562E1   2.781786874525567E1  
                        -3.024914862662780E1  -1.374687669159425E2  -2.087735334509905E1  -1.574933767034484E2  -1.156921865144986E1  -1.318203735008873E2  -3.882423431794364E1   1.329296134683293E2  
                        -2.116192169137483E1  -6.549688697727368E1  -4.736698789415011E1   3.284370353567569E1  -3.919963162287566E1   1.686238028417121E2  -1.763939094118695E1   3.644640500880455E1  
                        
 4.442807807807807E10   -1.311435211841272E1   1.700580706666975E2  -3.860515296818421E1  -1.407558253295589E2  -2.976699361927899E1   1.786615000520298E2  -2.102250619008713E1   5.388084414423775E1  
                        -3.861864796396593E1  -1.151819767545383E2  -2.553497204999092E1  -6.715501884605843E1  -2.046165236588367E1   1.948970680575039E1  -4.751687406503102E1   1.693371237841748E1  
                        -2.977378654084602E1   1.787869278139422E2  -2.086981628429638E1  -6.920712520282967  -1.121629800525441E1  -1.635536023366556E2  -3.916194355759323E1  -7.529024978280454E1  
                        -2.103616404556053E1   8.618390493298720E1  -4.766129059184009E1   1.977990666082499E1  -3.853068685581213E1  -4.283922602751887E1  -2.021484311350539E1   5.008969431586543E1  
                        
 4.449813813813814E10   -1.237609437352419E1   1.228999160548635E2  -3.900501286654957E1   1.147859974727258E1  -2.966599915651823E1   1.323297194030697E2  -2.138351491386336E1  -1.535390771153339E2  
                        -3.864756994928776E1   3.586233497848885E1  -2.481197057251980E1  -8.295026223928470E1  -2.058199017555061E1   1.705726533701043E2  -4.734358570535595E1   3.253932961827457  
                        -3.016272985466118E1   1.310263364418131E2  -2.088919843456312E1   1.466595891652997E2  -1.269203196648432E1   1.470067317057051E2  -3.895000601765065E1   7.546884442320913E1  
                        -2.077318277930848E1  -1.234202763907184E2  -4.782879478018727E1   9.119706854056972  -3.876685581311322E1   1.086779744379046E2  -2.192299554465743E1   3.707871000614909E1  
                        
 4.456819819819820E10   -1.179032378612869E1   8.049081511265317E1  -3.910312892529299E1   1.627241402353432E2  -3.041658096299885E1   8.724338443002995E1  -2.130495281904489E1  -7.957866603130590E-1  
                        -3.921995831489283E1  -1.734526728267006E2  -2.553979083157710E1  -8.693194486299585E1  -2.044328942118507E1  -3.769082870601010E1  -4.805601319612459E1  -9.849485552948083  
                        -3.036934996292566E1   8.768202139773497E1  -2.079515879978218E1  -6.158240494502270E1  -1.110698604461416E1   1.036054399544600E2  -3.951871183647759E1  -1.315999019693498E2  
                        -2.129347968663064E1   2.878602613989412E1  -4.794093615917780E1  -2.552537259397653  -3.967107725262730E1  -9.905925559830955E1  -1.827875624167636E1   3.118070353600544E1  
                        
 4.463825825825826E10   -1.235631453992598E1   3.777194831798036E1  -3.983917551947643E1  -4.393443459903289E1  -3.071658026924132E1   4.344192376446650E1  -2.130150003263936E1   1.509384661096112E2  
                        -3.980294920621537E1  -2.346603783097244E1  -2.352826347477179E1  -9.349993165856718E1  -2.055143553828497E1   1.130467739183421E2  -4.812734794290612E1  -1.824982731836366E1  
                        -3.090961373657220E1   4.157063006113163E1  -2.090422882556876E1   9.028729651253077E1  -1.227356373583370E1   6.263702831991283E1  -3.950938765609268E1   2.063775551252254E1  
                        -2.118188044491581E1  -1.794663941635627E2  -4.801841604026323E1  -1.349539675916085E1  -3.957703899194541E1   4.933028955949694E1  -1.758965895757591E1   3.990966337854599E1  
                        
 4.470831831831831E10   -1.213269917518543E1  -6.807683165498220  -3.973819057180414E1   1.095937013314885E2  -3.099120089741317E1   2.866010171137385  -2.120051453319695E1  -5.641840326397782E1  
                        -4.023467916589534E1   1.305680601440112E2  -2.434167245239808E1  -9.541715082876723E1  -2.105013640426787E1  -9.329426757653329E1  -4.763572374214200E1  -2.892568854274974E1  
                        -3.124202115647141E1  -8.916095340844757E-1  -2.068182533347078E1  -1.189695164257552E2  -1.275368846569330E1   1.028118977881824E1  -3.994363397593394E1   1.724591350774545E2  
                        -2.151839440583097E1  -2.963657528457042E1  -4.801566928232399E1  -2.575899873046056E1  -4.004033500195571E1  -1.572505882542368E2  -1.903614875483885E1   5.282188433433464E1  
                        
 4.477837837837837E10   -1.171607333203399E1  -4.215223357802306E1  -4.021867666855604E1  -9.998936523145402E1  -3.183628513535427E1  -4.363676888067277E1  -2.128294542040620E1   9.525508773914316E1  
                        -4.026133688448797E1  -7.614182063992692E1  -2.326535212576331E1  -1.257153283210976E2  -2.114602848018522E1   5.959998909050415E1  -4.837030310528859E1  -4.365814734483371E1  
                        -3.142062003948004E1  -4.300375117921666E1  -2.071439720919232E1   3.315831489652269E1  -1.231440419200187E1  -2.412517887673209E1  -4.013910648145387E1  -3.456224100633162E1  
                        -2.159492625231760E1   1.264376864874059E2  -4.842147068793150E1  -3.532613822318518E1  -3.989268585185987E1  -1.637043672537904  -2.131525477227009E1   3.710878089927896E1  
                        
 4.484843843843843E10   -1.227472094992264E1  -8.239292707970107E1  -4.053693487221052E1   5.495411640404292E1  -3.151427135599511E1  -8.624028186928462E1  -2.141556637457225E1  -1.115781371280577E2  
                        -4.083995759373285E1   7.800461590076847E1  -2.220800053770237E1  -1.114029701789953E2  -2.091973661124193E1  -1.504889449472798E2  -4.883186378906243E1  -5.158106281878542E1  
                        -3.145907229363707E1  -8.488665402456613E1  -2.073460398199404E1  -1.746612445948980E2  -1.308972988558046E1  -6.764756113602269E1  -4.031440727873018E1   1.158763980670971E2  
                        -2.130925102138145E1  -8.078733474097395E1  -4.835540645201503E1  -4.648683864314689E1  -4.054557525360026E1   1.484744081759749E2  -1.990098763277641E1   2.517458913373684E1  
                        
 4.491849849849850E10   -1.296209729981018E1  -1.237348633706983E2  -4.032289418188829E1  -1.534475232913940E2  -3.147441785336853E1  -1.295771484313367E2  -2.118366864515681E1   3.933366577278775E1  
                        -4.061711397890702E1  -1.240999191487460E2  -2.382568041872656E1  -1.200636890707327E2  -2.035074811082747E1   7.525016505134673  -4.864189059824657E1  -6.337146355227528E1  
                        -3.152186207763275E1  -1.287329090247943E2  -2.057040644294315E1  -2.269330287959852E1  -1.179131125441477E1  -1.165950124074869E2  -4.052181023966987E1  -8.965718315389752E1  
                        -2.128882443281066E1   7.172395836619860E1  -4.857999216286717E1  -5.894113374068247E1  -4.066089175919669E1  -5.442780430236071E1  -1.720083933326533E1   3.785494145973597E1  
                        
 4.498855855855856E10   -1.368023335146423E1  -1.674856647633271E2  -4.035150406252073E1  -2.252988203787706  -3.132692978562638E1  -1.728741340976249E2  -2.113079702783923E1  -1.700168166404829E2  
                        -4.022812146609090E1   2.696670403803933E1  -2.267292116902030E1  -1.365648384595868E2  -2.039753387973713E1   1.562032246205621E2  -4.868714627555723E1  -7.484832391781464E1  
                        -3.107897167533048E1  -1.716054791893697E2  -2.044631088235800E1   1.289753891786864E2  -1.121187579460985E1  -1.496025355040771E2  -4.040784023870319E1   6.276342009714264E1  
                        -2.105129029639950E1  -1.366993700205603E2  -4.874318096683353E1  -7.211739048341990E1  -4.057352159823447E1   9.375699175079510E1  -1.800242811996211E1   4.761972042184523E1  
                        
 4.505861861861861E10   -1.357808332725673E1   1.372152654935412E2  -4.089256575486576E1   1.487066590947411E2  -3.165845279115857E1   1.412243120856362E2  -2.119422134577601E1  -1.656426790127534E1  
                        -4.055880677053906E1   1.748150270073321E2  -2.246768877864793E1  -1.388688618605389E2  -2.059283700325958E1  -5.205604110657302E1  -4.862160936499033E1  -8.352478056554146E1  
                        -3.143382366006393E1   1.387897083869302E2  -2.076050779622718E1  -7.995214679520655E1  -1.195822104164653E1   1.659454499708377E2  -4.036867766958823E1  -1.454106259112319E2  
                        -2.109909045530650E1   1.485873173056955E1  -4.867141197125377E1  -8.283971852047617E1  -4.035278742702152E1  -1.134996136536511E2  -1.994583711967579E1   3.999890804444326E1  
                        
 4.512867867867867E10   -1.243121022526580E1   9.060912091883684E1  -4.104634619995496E1  -5.581862635287799E1  -3.175028005567214E1   1.023482871932804E2  -2.114855158726228E1   1.352265126676799E2  
                        -4.082550109946462E1  -2.921338650931384E1  -2.457498495922896E1  -1.360813270541995E2  -2.003604127148261E1   9.952872053675203E1  -4.866147237175994E1  -9.495833244300839E1  
                        -3.187360875420168E1   9.765041123766710E1  -2.057261656618331E1   7.348489271778426E1  -1.174207661669492E1   1.248860528948306E2  -4.082742401224839E1   8.606025472817048  
                        -2.075958295507224E1   1.638194381641648E2  -4.901400060790085E1  -9.504148710215340E1  -4.074580438873117E1   3.729797734590893E1  -1.958149060256787E1   2.240155076341475E1  
                        
 4.519873873873873E10   -1.168144371997121E1   4.870067149362749E1  -4.118039979416665E1   9.702993828129948E1  -3.166421235050719E1   5.445403218318083E1  -2.125683843715445E1  -7.161484944153891E1  
                        -4.080448278364138E1   1.209316038692989E2  -2.291141011647453E1  -1.521034729143605E2  -2.037508254973580E1  -1.093290431155642E2  -4.892889121907609E1  -1.096099955846127E2  
                        -3.149329400757408E1   5.131201739899228E1  -2.042653266734753E1  -1.353242177130634E2  -1.366155062690792E1   8.744257664078931E1  -4.079733747742779E1   1.616943557178986E2  
                        -2.098887810295519E1  -4.445188647903687E1  -4.886553323423985E1  -1.032471649290111E2  -4.061160583095497E1  -1.682101506627175E2  -1.765410752804779E1   1.472986989372859E1  
                        
 4.526879879879880E10   -1.135334327803374E1   1.103588245542867E1  -4.118584186645657E1  -1.088811571394327E2  -3.241850303527603E1   8.824329437943190  -2.112573271962005E1   7.878358114612841E1  
                        -4.114707556797214E1  -9.034016780211479E1  -2.145342993798405E1  -1.571194980815966E2  -2.070827250728940E1   3.991623795165698E1  -4.934760257704721E1  -1.199524541574931E2  
                        -3.196122552125974E1   5.995056390853544  -2.056156955827600E1   1.822397510749218E1  -1.363376232212059E1   3.055861123352359E1  -4.127211130917637E1  -4.865307454011508E1  
                        -2.100017509108744E1   1.059885221214040E2  -4.918130828319522E1  -1.143721896783292E2  -4.156311874914009E1  -1.750430199940314E1  -2.028874045433812E1   1.606518604077827E1  
                        
 4.533885885885886E10   -1.170469969565293E1  -2.735136606341552E1  -4.151611289195049E1   3.953741407240099E1  -3.260571333790130E1  -3.334727579353076E1  -2.094238026801362E1  -1.275606991346364E2  
                        -4.148010896938079E1   6.989075402100477E1  -2.512425427921137E1  -1.624343296809533E2  -2.071287234651182E1  -1.599956101668543E2  -4.926492961607406E1  -1.266042347946496E2  
                        -3.220901136036136E1  -3.479269058780378E1  -2.027760732307346E1   1.701307005030162E2  -1.375458334901110E1  -6.075276599657570  -4.138823656915506E1   1.057742247488142E2  
                        -2.127790202586094E1  -1.003129393480617E2  -4.933539326873823E1  -1.238783761050369E2  -4.155409974067581E1   1.353926406880452E2  -2.450467726771640E1  -4.869552263248812  
                        
 4.540891891891892E10   -1.262495589675162E1  -6.807288305455563E1  -4.148069030269998E1  -1.647203518231210E2  -3.269336877349218E1  -7.492833729895425E1  -2.075013576856332E1   2.362310125496499E1  
                        -4.159573753426758E1  -1.345055144791862E2  -2.486737916201889E1  -1.743562030244513E2  -2.024464454934202E1  -1.177943499524425E1  -4.937590807107695E1  -1.382929263288921E2  
                        -3.203637819150801E1  -7.722151850930457E1  -2.046381963709821E1  -4.497185879122203E1  -1.471808452616465E1  -5.355101325079622E1  -4.142319433170696E1  -9.970404225109112E1  
                        -2.111607734455658E1   5.219654821777377E1  -4.913991101503305E1  -1.406438496756440E2  -4.189600737504254E1  -6.993001960628003E1  -2.373738469692414E1  -3.092602527993522E1  
                        
 4.547897897897897E10   -1.282407226348271E1  -1.076757796413767E2  -4.129416509311292E1  -1.357693327713408E1  -3.196447710701066E1  -1.204976045507076E2  -2.079868487023614E1   1.762648896184655E2  
                        -4.152600646829586E1   1.719701499545902E1  -2.681274879154875E1  -1.678532671635689E2  -2.019422948210218E1   1.425465646415372E2  -4.952414629681420E1  -1.480034257855192E2  
                        -3.205570390933644E1  -1.216359385481930E2  -2.042866638764528E1   1.068269227377101E2  -1.274542192996741E1  -9.436550976652362E1  -4.142172349719535E1   5.313674942611709E1  
                        -2.101260013793482E1  -1.541554637807359E2  -4.959944118719837E1  -1.513029195210884E2  -4.164124036484336E1   8.439995354915537E1  -2.180490943132297E1  -1.626409748234898E1  
                        
 4.554903903903903E10   -1.327490827868138E1  -1.508675225116166E2  -4.152503729282700E1   1.388988212778552E2  -3.232519143492338E1  -1.605904837448984E2  -2.085443473711846E1  -3.398057575841618E1  
                        -4.161317033439212E1   1.698351937655880E2  -2.490089989670403E1   1.782219278676064E2  -2.056439847785328E1  -6.606875496230805E1  -4.934119055873865E1  -1.615656663757428E2  
                        -3.221787009824642E1  -1.644584928987594E2  -2.022059337492218E1  -9.991140512037825E1  -1.427428696927808E1  -1.242001016885946E2  -4.155434344996296E1  -1.565898902709677E2  
                        -2.093548850048636E1  -3.982639026164303  -4.973249717646436E1  -1.614033400478307E2  -4.182940125884890E1  -1.236290801302000E2  -2.195970239555954E1   2.708594007443428E1  
                        
 4.561909909909910E10   -1.374218624271233E1   1.687670004598659E2  -4.146592968948353E1  -6.688766099757029E1  -3.191384417330565E1   1.571129618707780E2  -2.068317228327318E1   1.176380844385420E2  
                        -4.156228555248080E1  -3.143777575606761E1  -2.470593261363912E1  -1.743099917088642E2  -1.988886176906060E1   8.808427787895505E1  -4.955322375961975E1  -1.715820162631678E2  
                        -3.159136109327542E1   1.519549565759649E2  -2.016412830146659E1   4.785997320264172E1  -1.418263466395339E1  -1.771544555156143E2  -4.159477603469543E1  -1.911646267805393  
                        -2.072629052009552E1   1.494878639278166E2  -4.997066647993675E1  -1.750833422502129E2  -4.134102859887935E1   3.310407506685281E1  -2.746626384589280E1   3.967267511809608E1  
                        
 4.568915915915916E10   -1.399052224057587E1   1.253461807210309E2  -4.153592602048718E1   8.302130081854710E1  -3.110964676908614E1   1.096635800620469E2  -2.062580058221827E1  -9.024412095879636E1  
                        -4.109123836098755E1   1.185656020087515E2  -2.516518954675128E1  -1.788363916557358E2  -2.023184498394916E1  -1.188210889414528E2  -4.958407377902439E1   1.793769765297101E2  
                        -3.164361445953101E1   1.055712804139835E2  -2.006242484219498E1  -1.606169266513598E2  -1.318928948555241E1   1.586926785992419E2  -4.158839053846857E1   1.508617464499880E2  
                        -2.056432054849478E1  -6.065307844162316E1  -4.992535643027578E1   1.741966718455512E2  -4.129559607430117E1  -1.746998009007665E2  -2.442010094274180E1  -2.047001949308191E1  
                        
 4.575921921921922E10   -1.484741066764298E1   7.746262858045692E1  -4.175775044848390E1  -1.244831558977188E2  -3.167761544948464E1   6.496305460349602E1  -2.055692774747290E1   6.002754374103262E1  
                        -4.175982474958078E1  -8.835823628607002E1  -2.336036690200216E1   1.719660598287342E2  -2.008975831811344E1   3.102114357592559E1  -4.971611535302984E1   1.653026887809531E2  
                        -3.178425267470648E1   6.110303643204783E1  -1.996721784700836E1  -1.008153990676206E1  -1.627999321145817E1   1.194214420503849E2  -4.164557066841415E1  -5.667511467249393E1  
                        -2.062017038133655E1   9.203043849915781E1  -4.962879183354467E1   1.665179009195163E2  -4.145282200618168E1  -2.258503706988654E1  -2.077247634019353E1  -1.749513399763623E1  
                        
 4.582927927927927E10   -1.521842330615397E1   3.021023138632121E1  -4.169530960977088E1   2.882726759505811E1  -3.167612674298619E1   2.301437031426595E1  -2.048897792586989E1  -1.485588081941029E2  
                        -4.163481398469574E1   6.674142574088018E1  -2.348036915086913E1   1.538793751057058E2  -2.003940248909618E1   1.775754911794764E2  -5.012794679501850E1   1.552919676635279E2  
                        -3.177589398073869E1   1.678824366548461E1  -2.001132263618521E1   1.406881100954609E2  -1.624368788692447E1   6.817406356547996E1  -4.185219602788433E1   9.446448911777758E1  
                        -2.054721204698308E1  -1.165743410443611E2  -4.964466304512511E1   1.513843569922557E2  -4.128147043295919E1   1.301587238856255E2  -2.070270093914013E1   2.699051359662166  
                        
 4.589933933933933E10   -1.459783678771322E1  -9.351865984511854  -4.181232178942967E1  -1.758950867474207E2  -3.181308594227748E1  -2.171259352255755E1  -2.071603424183767E1   4.849803049049431  
                        -4.158667784855040E1  -1.418191369495407E2  -2.526833500833587E1   1.404813906699985E2  -1.993305959029465E1  -3.030176852641275E1  -4.978729110351664E1   1.463627582426673E2  
                        -3.168843106777230E1  -2.789710396439460E1  -1.994505319534451E1  -6.938876229747140E1  -1.712312456296085E1   4.043421355151799E1  -4.167316473102596E1  -1.115167522878700E2  
                        -2.059350277683479E1   3.269842117858764E1  -4.963284894279547E1   1.397113337592213E2  -4.162035132118476E1  -7.960179459898271E1  -2.399163250630467E1  -5.211424537429058  
                        
 4.596939939939940E10   -1.423945423595129E1  -4.726211149979159E1  -4.143963839185431E1  -2.536078266502094E1  -3.202193668773263E1  -6.819998931375818E1  -2.027674612880704E1   1.546778163538108E2  
                        -4.165204049144051E1   1.375932341898889E1  -2.760949214490321E1   1.269901334605733E2  -1.973932168910422E1   1.249073707569884E2  -4.968856966539265E1   1.320830927602843E2  
                        -3.177707414762049E1  -7.188289797095588E1  -1.994109442167675E1   8.175176049901447E1  -1.879623143429561E1  -2.149356084362099E1  -4.163922653259456E1   3.581220001436014E1  
                        -2.090069932047249E1  -1.746836283026160E2  -4.964638779677004E1   1.251086812378686E2  -4.217900379211875E1   7.496959366891977E1  -2.330327814807034E1  -4.508612074482909E1  
                        
 4.603945945945946E10   -1.358474083001707E1  -7.907706505378772E1  -4.160796112880629E1   1.296145284911065E2  -3.205609199811585E1  -1.107390193897523E2  -2.073886400254291E1  -5.533441766105806E1  
                        -4.178281943510236E1   1.671357744075859E2  -2.876742605925344E1   1.279005270697285E2  -2.003123822201082E1  -8.580053180321970E1  -5.016905537087596E1   1.240895141671903E2  
                        -3.189836105590984E1  -1.141434587571623E2  -1.998163144690756E1  -1.270754222246998E2  -1.616140549771832E1  -6.036007569726144E1  -4.224325152273990E1  -1.687454743982648E2  
                        -2.073516186240689E1  -2.310098287095075E1  -5.018000689935878E1   1.168566037846636E2  -4.184019200191104E1  -1.327327560303656E2  -2.268860093952047E1  -4.283711101559032E1  
                        
 4.610951951951952E10   -1.459779231184850E1  -1.118748538914755E2  -4.136296744075174E1  -7.529233025326646E1  -3.180804687913618E1  -1.550774341966708E2  -2.043620095845321E1   9.930756775419468E1  
                        -4.171520670622167E1  -3.845763365831510E1  -2.642763518375478E1   1.765112590382435E2  -2.021848517983570E1   6.571947496656611E1  -4.949947134421298E1   1.121678361146283E2  
                        -3.169664048673178E1  -1.553960488776753E2  -1.989812776117327E1   2.447664067223840E1  -1.753230397588111E1  -8.874706129576791E1  -4.181534252222696E1  -1.085240269168119E1  
                        -2.082004737560804E1   1.280459758340645E2  -4.967061119943106E1   1.065018004271874E2  -4.207603402202125E1   2.190909314184646E1  -2.098471015869756E1  -1.993052243940429  
                        
 4.617957957957958E10   -1.506281080369295E1  -1.530444555377924E2  -4.125094323551032E1   7.456261588754992E1  -3.152329213603480E1   1.605216637943213E2  -2.027123596408153E1  -1.128972385387234E2  
                        -4.138933924749818E1   1.157870896406832E2  -2.841453854133848E1   1.479455719681202E2  -1.957996302799511E1  -1.409284238272280E2  -4.947275299420232E1   1.003948225186907E2  
                        -3.147434500621563E1   1.602501313970848E2  -2.004604324721789E1   1.774002361489864E2  -1.570338148149502E1  -1.391238663885803E2  -4.169852470545800E1   1.389772920938844E2  
                        -2.059806410761079E1  -7.761246949032481E1  -4.961679503243506E1   9.859529617548834E1  -4.203045144379234E1   1.766828190293695E2  -2.491364135678343E1   2.710648884104352E1  
                        
 4.624963963963963E10   -1.586231084200993E1   1.664716515292737E2  -4.133551698148052E1  -1.297291403821808E2  -3.179449672963655E1   1.177169159419252E2  -2.052234617546553E1   3.993246230461509E1  
                        -4.125091173584756E1  -9.270980145105227E1  -2.455600545074894E1   1.288181551874660E2  -1.982470063195493E1   1.078538522282186E1  -4.994886491428573E1   9.144696065208153E1  
                        -3.142707267055207E1   1.157975857680222E2  -2.001006260240920E1  -3.202093958744310E1  -1.469807177061664E1  -1.582521583504380E2  -4.213012420614029E1  -6.629044765312099E1  
                        -2.036697447060490E1   7.391871949199965E1  -5.028786758627589E1   8.659735296326878E1  -4.202729192396551E1  -2.939087753258552E1  -2.474254609987536E1  -3.317950471969633E1  
                        
 4.631969969969970E10   -1.620031376961310E1   1.225099712086085E2  -4.125332688350420E1   2.220136459897539E1  -3.157884194209215E1   7.400964695047881E1  -2.028649254111510E1  -1.687983922369223E2  
                        -4.118085266427990E1   6.127136770100845E1  -2.639588811035697E1   1.165514742013527E2  -2.030740824357242E1   1.602180256114432E2  -4.934562654316374E1   7.859839749487647E1  
                        -3.134836616329195E1   7.188105126778251E1  -2.002855733758880E1   1.200599244994596E2  -1.638592864595909E1   1.707699697143699E2  -4.148145518665965E1   8.926050785263220E1  
                        -2.030259405939898E1  -1.350978674954027E2  -4.970536693108774E1   7.354706600759593E1  -4.172225573203488E1   1.226983778816572E2  -1.955369627632516E1  -5.507659050670232E1  
                        
 4.638975975975976E10   -1.463555811754450E1   8.857592238738845E1  -4.074637685174409E1   1.757096331679835E2  -3.127641634823408E1   2.991498058597765E1  -2.039721993495284E1  -1.846858455669802E1  
                        -4.058852717001246E1  -1.450327961165674E2  -3.786306729168414E1   9.266094270883720E1  -1.954040976234675E1  -4.776865093177645E1  -4.989505391188789E1   6.563139453041808E1  
                        -3.098230612345163E1   2.661887723355099E1  -2.014778172876298E1  -8.894510182874483E1  -1.519461023805271E1   1.274247140121046E2  -4.158973879177297E1  -1.211335475933984E2  
                        -2.022338296606320E1   1.656518470977646E1  -4.992412111409687E1   6.368869404790928E1  -4.125781722758379E1  -8.513566242894771E1  -2.064027165692736E1  -1.267312999487804E1  
                        
 4.645981981981982E10   -1.552404652961820E1   5.498576580097880E1  -4.062307430587142E1  -3.230842339467807E1  -3.116710330691951E1  -1.748378248618879E1  -2.065224404265221E1   1.336689264349361E2  
                        -4.033273898195491E1   3.996380231384285  -3.122373026410999E1   1.123127075534666E2  -1.977378554600040E1   1.002790759257722E2  -4.971415369459296E1   5.762737934776090E1  
                        -3.107123422853146E1  -2.023416919035861E1  -1.980897217359380E1   6.299252137128672E1  -1.668541047326421E1   1.107983284598506E2  -4.176625876957481E1   3.529697712466228E1  
                        -2.014794563641342E1   1.656128358868950E2  -4.920813895665877E1   5.168568912123853E1  -4.148608733991530E1   6.705871054160728E1  -2.519276748485208E1   1.498043127896380E1  
                        
 4.652987987987988E10   -1.578394983521045E1   1.110169956062257E1  -4.046315586853000E1   1.211703896251329E2  -3.092322665513699E1  -6.129668686607305E1  -2.035154971150753E1  -7.468813343700772E1  
                        -4.052519989578841E1   1.572096175331894E2  -2.679076362276158E1   1.204639607877860E2  -1.974419451477204E1  -1.057794425270550E2  -4.910412594188915E1   4.271894008585370E1  
                        -3.117127663860529E1  -6.272740480260688E1  -1.992312787807243E1  -1.457887250018742E2  -1.947506814435913E1   6.347014754789471E1  -4.136627483392329E1  -1.734577609438450E2  
                        -2.044079567879894E1  -4.265326152326568E1  -4.978772069795085E1   3.792412114136511E1  -4.145031543944728E1  -1.367937522675625E2  -2.940802705992132E1  -1.069624744717345E1  
                        
 4.659993993993993E10   -1.627564954102497E1  -2.482861109779641E1  -4.015116348010704E1  -8.605088539987735E1  -3.099431976037564E1  -1.060671716451546E2  -2.041088916822694E1   7.629584763884279E1  
                        -4.013131602170957E1  -4.959778663592893E1  -2.856497668410524E1   1.189081899321943E2  -1.999101952199338E1   4.381272659662919E1  -4.981407989347467E1   3.239508330018646E1  
                        -3.083788003573037E1  -1.078163169371771E2  -2.008526597315323E1   5.477489215792212  -1.797170066758997E1   5.859676589145253  -4.141792836781206E1  -2.199334887722786E1  
                        -2.061684319355988E1   1.081153590773444E2  -4.940166579395478E1   3.063765952262106E1  -4.162690034264200E1   1.581777112710185E1  -1.876701961000474E1  -4.327799437074734E1  
                        
 4.666999999999999E10   -1.715761550122680E1  -7.475053419443452E1  -3.999136911276064E1   6.559295976846818E1  -3.106034795890257E1  -1.507556701564030E2  -2.038904430625801E1  -1.328797834024380E2  
                        -4.019228992331824E1   1.012388053621846E2  -2.742826278531049E1   9.881634893926754E1  -2.010807484463546E1  -1.661554644524277E2  -4.942918091137531E1   2.128955612943018E1  
                        -3.092412492697831E1  -1.531841732174806E2  -2.001513336465201E1   1.569150224248083E2  -1.993134924250449E1  -3.091919367152579E1  -4.089145389508504E1   1.326634345005132E2  
                        -2.070175295461824E1  -9.900637143172311E1  -4.981151871637051E1   1.987824011573149E1  -4.146466921573478E1   1.658354364234783E2  -2.078585040958356E1  -3.400455448890654E1  
                        
 4.674006006006006E10   -1.552500241947363E1  -1.177515619413430E2  -3.984759325746806E1  -1.413739288451097E2  -3.097738386270490E1   1.667990326892767E2  -2.049847199883504E1   1.865847178414065E1  
                        -4.006693178514458E1  -1.061431233030005E2  -2.872185453974401E1   7.987398402161685E1  -2.033527873778311E1  -1.311551398666869E1  -4.957394504228958E1   1.216578678747826E1  
                        -3.099975093708848E1   1.655286911049446E2  -2.017402094350935E1  -5.136719068814683E1  -1.782250476771680E1  -9.213624100072305E1  -4.100427163167850E1  -7.408997887212018E1  
                        -2.086550222236416E1   5.195904631889636E1  -4.982276042143363E1   2.612250463316268  -4.123411308245331E1  -3.749831379909691E1  -2.655602580826141E1   3.257232913746822  
                        
 4.681012012012012E10   -1.439414131098093E1  -1.500068775169702E2  -3.954743992093795E1   1.198859548339471E1  -3.078922507728063E1   1.214126518103046E2  -2.069255327741494E1   1.715525385741229E2  
                        -3.977581431111031E1   4.785452046871221E1  -2.554453548526611E1   9.951717608746027E1  -2.016778383425246E1   1.409161926634795E2  -4.913612022842118E1  -5.341635209541954E-1  
                        -3.046500294867880E1   1.205274756022786E2  -2.020099022010179E1   1.001540079642391E2  -1.488236019841281E1  -1.164708677020091E2  -4.099577160869390E1   8.023390342141617E1  
                        -2.085904571578723E1  -1.565741919538504E2  -4.941366225875012E1  -3.035960099955791  -4.080311514328808E1   1.137739299053173E2  -2.802140333529244E1  -8.620357192900396E1  
                        
 4.688018018018018E10   -1.399975523369196E1   1.775125471538620E2  -3.948635122010486E1   1.635218480846274E2  -3.054238506901565E1   7.805519682131346E1  -2.057656031343692E1  -3.775196205663256E1  
                        -3.911736712255405E1  -1.600550375838683E2  -2.766504775810929E1   7.872951746074597E1  -2.010746945618661E1  -6.772998169434591E1  -4.934261267492543E1  -1.218329496888087E1  
                        -3.030088034489288E1   7.494404978294692E1  -2.029695127244104E1  -1.087218993109363E2  -1.593539170379547E1  -1.453411695789671E2  -4.052917860087907E1  -1.284004920315560E2  
                        -2.070040990112690E1  -3.974506730859429  -4.982279186958338E1  -1.513702372803329E1  -4.037485128279013E1  -9.346723989041628E1  -1.952024029104344E1  -8.997742069952780E1  
                        
 4.695024024024023E10   -1.361484952040085E1   1.451294191182519E2  -3.934935552300986E1  -4.301576741995027E1  -3.022939588803556E1   3.113309017158606E1  -2.076481402577850E1   1.129584360940350E2  
                        -3.881779785042901E1  -1.012949934708550E1  -2.861626288029288E1   3.844954113166224E1  -1.981745698648892E1   8.037861082276278E1  -4.932273563122848E1  -2.242362443060108E1  
                        -2.991016769909159E1   2.741503308142191E1  -2.027122725661313E1   4.274545051717413E1  -1.429606309888595E1   1.670114148314329E2  -4.042644550987585E1   2.637587859471211E1  
                        -2.062241210683996E1   1.464261706465577E2  -4.951020286912191E1  -2.521600554750138E1  -4.026645444015956E1   5.919916443040936E1  -2.202779931551723E1  -4.626115728005113E1  
                        
 4.702030030030029E10   -1.400214711017756E1   1.150641469194225E2  -3.862900822223062E1   1.062222743894259E2  -3.012709966788161E1  -1.053196209560538E1  -2.075933879399347E1  -9.368815457122933E1  
                        -3.906811558543410E1   1.417584289277893E2  -2.595262046524430E1   7.453493568364313E1  -1.995235262130481E1  -1.266300092140281E2  -4.923622180709995E1  -3.686950589330805E1  
                        -2.994643117120472E1  -1.499111554862074E1  -2.024466929933982E1  -1.662948520290241E2  -1.360757865048013E1   1.529639254996959E2  -4.008294614448118E1   1.775032765592962E2  
                        -2.053076431700695E1  -6.363992394935838E1  -4.944255996409663E1  -3.923882454194644E1  -3.964473840273853E1  -1.483458149113621E2  -3.497732252125664E1  -2.803856918543957E1  
                        
 4.709036036036036E10   -1.539848510860439E1   7.097214826506922E1  -3.889552256509249E1  -1.022437789582143E2  -2.979682654882099E1  -5.691686667201084E1  -2.089045680493096E1   5.611331069071701E1  
                        -3.829377809799092E1  -6.743860258686500E1  -2.492582787776801E1   6.925124775410055E1  -1.992166306327587E1   2.409709496499950E1  -4.907358982054429E1  -4.765504200178352E1  
                        -2.957383164233921E1  -6.160020050973759E1  -1.998940425206365E1  -1.409692286915685E1  -1.845393031678334E1   1.218343973640601E2  -3.966209077034163E1  -3.166450199189997E1  
                        -2.049767025945898E1   8.871213029736096E1  -4.944457187453301E1  -5.156605725558512E1  -3.995185927884405E1   3.461527309695668  -2.454782864807571E1  -1.268060892063793E2  
                        
 4.716042042042042E10   -1.572860800380206E1   2.342418549028555E1  -3.872738591857969E1   5.022949749596837E1  -3.001848553481593E1  -1.078903596736159E2  -2.093643297484229E1  -1.520148555691762E2  
                        -3.829366032394798E1   8.076487623605699E1  -2.859002364816766E1   4.521418482771556E1  -1.998741197468895E1   1.726854991684446E2  -4.861090028597694E1  -6.002495333044193E1  
                        -2.980931702771439E1  -1.115542833543806E2  -2.005287028965775E1   1.354337996287284E2  -1.534372138790481E1   5.476177769442782E1  -3.946497708762190E1   1.196852955400949E2  
                        -2.065414678746641E1  -1.228224628283445E2  -4.927813548483837E1  -6.103676019105497E1  -3.924469988898330E1   1.513745326419694E2  -2.116810548902880E1  -1.058142650090934E2  
                        
 4.723048048048048E10   -1.571427844629451E1  -1.626265610264120E1  -3.840194267789020E1  -1.609123406807890E2  -3.019365892516107E1  -1.477465036380036E2  -2.070379000225317E1   5.652270029115639E-1  
                        -3.849618451925930E1  -1.259105538920878E2  -2.441600413703310E1   4.596914960046978E1  -2.038606282902479E1  -3.539249869854368E1  -4.865891841339087E1  -7.142738832951798E1  
                        -3.012153603810514E1  -1.537089087944703E2  -2.036676371804419E1  -7.242828203084299E1  -1.854305470345137E1   2.554685125748936E1  -3.918968511907354E1  -8.950288575153881E1  
                        -2.102479534372604E1   2.962636147979334E1  -4.892984571277129E1  -7.204590917587575E1  -3.980487330661169E1  -5.232619275130415E1  -2.694105540771854E1  -8.413257919716124E1  
                        
 4.730054054054054E10   -1.489456497319281E1  -6.144930666787747E1  -3.822337581136765E1  -7.393466691693174  -2.959524198879417E1   1.687857958868069E2  -2.103728204624238E1   1.527717279766304E2  
                        -3.803776553844087E1   2.516500967410212E1  -2.471940515313099E1   4.411962492389364E1  -2.000671561458420E1   1.153725920644858E2  -4.905756102298253E1  -8.104024389438617E1  
                        -2.941296229301009E1   1.626937521910009E2  -2.031583786797657E1   7.992773017669148E1  -1.884230757360204E1  -5.876638640880024E1  -3.881362283208677E1   6.407232133587216E1  
                        -2.095103857755863E1  -1.780382741484874E2  -4.909800609900387E1  -8.739897166743619E1  -3.877973481418534E1   9.914284132714909E1  -3.048240572054508E1  -9.891275009190809E1  
                        
 4.737060060060059E10   -1.474615004135252E1  -1.010779248025236E2  -3.801054732719306E1   1.438738673189014E2  -2.994822022049180E1   1.211430476208600E2  -2.090851503123209E1  -5.594000391875662E1  
                        -3.812811565096545E1   1.751804508115539E2  -2.518405644738619E1   2.778177010053798E1  -2.050029503687347E1  -9.137815888308980E1  -4.854627944864033E1  -9.026314114825436E1  
                        -2.974502262971312E1   1.147077814090674E2  -1.982498107655474E1  -1.290206065092293E2  -1.617555412206943E1  -7.268809597614182E1  -3.874515905679148E1  -1.457985688692702E2  
                        -2.107704828315985E1  -2.645858538660005E1  -4.865846767080642E1  -9.752187386737386E1  -3.904153564687266E1  -1.120619428046594E2  -2.378439534072162E1  -1.423889700132030E2  
                        
 4.744066066066066E10   -1.528174575977008E1  -1.425152675092445E2  -3.773745003030077E1  -6.855182595701544E1  -3.001883847711659E1   7.707669571734454E1  -2.087084303341375E1   9.518137818182944E1  
                        -3.773876600326251E1  -3.044920811679266E1  -2.744621126444806E1   3.049744885092399  -2.006324963677751E1   6.111054953014633E1  -4.820128368587930E1  -1.059327350837886E2  
                        -2.981978986343205E1   7.322475844669455E1  -2.057355897474807E1   2.158834667545975E1  -1.853255044947455E1  -1.173490315920992E2  -3.842371258148677E1   6.837133794012167  
                        -2.096950412589530E1   1.274890067462669E2  -4.855981970526291E1  -1.087315084851221E2  -3.845444647865749E1   3.925349532812602E1  -2.063534908072881E1  -1.317903745263206E2  
                        
 4.751072072072072E10   -1.304732092992231E1   1.771970296355158E2  -3.739307211009165E1   8.563175078229952E1  -2.901674458376526E1   3.261914976347990E1  -2.105674546614246E1  -1.126569884942642E2  
                        -3.724810847564504E1   1.216961830614781E2  -2.422612587705289E1   2.728697897742401E1  -2.034491433717556E1  -1.485983318575257E2  -4.827452857122497E1  -1.112903582772951E2  
                        -2.908297568504468E1   2.847307365899413E1  -2.001667545296354E1   1.719641931781608E2  -1.482871039897628E1  -1.597515670560116E2  -3.835609466265703E1   1.597850030306543E2  
                        -2.113450695686203E1  -8.237628744307452E1  -4.795134960226821E1  -1.211257257894991E2  -3.809627603877208E1  -1.658994164226273E2  -2.309582889782977E1  -9.955287044396941E1  
                        
 4.758078078078078E10   -1.447339343971731E1   1.423126402312638E2  -3.702957568552263E1  -1.231957096745178E2  -2.994280860551844E1  -1.413796325340504E1  -2.111289558577854E1   3.729210193562818E1  
                        -3.701097097433513E1  -8.740294672564362E1  -3.035748155357187E1   1.961948064131129E1  -2.006477116906802E1   6.424261224272348  -4.778026160562099E1  -1.291116433202072E2  
                        -2.937303858469015E1  -1.963383816169050E1  -2.027870759056216E1  -3.707584471532894E1  -1.309501468037173E1  -1.795924517825300E2  -3.814001895911922E1  -5.080165040947112E1  
                        -2.096536773042821E1   7.055257722502086E1  -4.780560876091255E1  -1.313479237313351E2  -3.832735519634446E1  -1.514522919304213E1  -3.368349300104396E1  -5.006812970244719E1  
                        
 4.765084084084084E10   -1.312833541197444E1   1.074592025463016E2  -3.730130567332557E1   2.641443477686340E1  -2.931295183530256E1  -5.918110274420836E1  -2.104072909747361E1  -1.717956599672480E2  
                        -3.675914929899974E1   6.391546102284334E1  -2.821164172791999E1   5.621410203245425  -2.057370748557350E1   1.580437786092109E2  -4.791456093279112E1  -1.398234458290197E2  
                        -2.898679172073631E1  -6.242381031711007E1  -2.031080791924498E1   1.155113112343922E2  -1.356608253854261E1   1.474611462213341E2  -3.810032212529190E1   9.967323386165222E1  
                        -2.084381568363380E1  -1.370953119557901E2  -4.772471874226878E1  -1.405533279635289E2  -3.783830226322998E1   1.365462147097102E2  -2.331291215453716E1  -1.579792607621261E2  
                        
 4.772090090090089E10   -1.372866029868058E1   7.840493257735317E1  -3.709887195607951E1   1.773371829608424E2  -2.879666004345320E1  -1.031644580251100E2  -2.097652274798557E1  -1.989413873628978E1  
                        -3.668624021787862E1  -1.465903232014792E2  -2.720392229800747E1   6.816346246479855  -2.028733177698928E1  -5.282769136135424E1  -4.736158077468296E1  -1.548139332957182E2  
                        -2.900701724662449E1  -1.106973984442097E2  -2.013853978985459E1  -9.271459174224370E1  -1.355244326719392E1   1.108470555657432E2  -3.753046520975486E1  -1.090492827480650E2  
                        -2.078268765432106E1   1.212473102420548E1  -4.739113705067444E1  -1.576293196620544E2  -3.747267559781129E1  -7.448630004451130E1  -2.049430207418380E1  -1.325122711265084E2  
                        
 4.779096096096096E10   -1.479586166646041E1   3.748408853888746E1  -3.697053340381044E1  -3.345885180657849E1  -2.902451997331083E1  -1.524740621291758E2  -2.112324039648084E1   1.325188904414345E2  
                        -3.633704492629766E1   2.827998203528104  -2.692553804337287E1   6.546235160993756  -2.003877906003926E1   1.010084957075228E2  -4.719874222981119E1  -1.642240827170300E2  
                        -2.878984890679266E1  -1.559817597991850E2  -2.031476358177417E1   5.878809450183060E1  -1.573173472321751E1   8.665978650634094E1  -3.725202797891928E1   4.176196873413760E1  
                        -2.103607003713428E1   1.635507392878615E2  -4.767507755267641E1  -1.703116200546765E2  -3.702060278974982E1   7.474901307054122E1  -2.188973557147788E1  -1.037494057298989E2  
                        
 4.786102102102102E10   -1.636174425397893E1   3.343490866405618  -3.649597128123383E1   1.178790098599807E2  -2.891775729759432E1   1.599593182625777E2  -2.124942207707141E1  -7.762601613937837E1  
                        -3.646004901436642E1   1.548732942962261E2  -2.820403463292621E1  -3.433353172690849E1  -1.989356302124408E1  -1.111162613278576E2  -4.692246651727059E1  -1.789535341120814E2  
                        -2.897454132380803E1   1.587650254863526E2  -2.028498492080055E1  -1.505275529668280E2  -1.875181226962603E1   3.280851691736714E1  -3.714336261682900E1  -1.680184287944197E2  
                        -2.104479843276210E1  -4.415340782318711E1  -4.742158283487068E1   1.792404418585054E2  -3.707050305788124E1  -1.340042533195976E2  -2.696223812020231E1  -1.006547538478773E2  
                        
 4.793108108108108E10   -1.797526763952727E1  -4.785159429709700E1  -3.640512714096761E1  -9.372799191426431E1  -2.959745979082521E1   1.148726298848723E2  -2.143555585704130E1   7.537087823686501E1  
                        -3.660428429758772E1  -5.565091326640038E1  -2.521964577386158E1  -2.518215770545941E1  -2.068335603470899E1   4.023087393437097E1  -4.725131596391667E1   1.674272137419069E2  
                        -2.913502735914587E1   1.135201154262865E2  -2.034257062277547E1   1.548069575572006  -1.706188323611008E1  -1.022479870039539E1  -3.712418458362424E1  -1.841594108800217E1  
                        -2.112439616052788E1   1.064642606579577E2  -4.693927328939655E1   1.636101945616550E2  -3.692515027751851E1   1.623832573334925E1  -2.386044354774508E1  -1.194121855610552E2  
                        
 4.800114114114114E10   -1.607709923989591E1  -9.589181471401098E1  -3.649219317355273E1   5.527643537413211E1  -2.877634312704055E1   7.056152095618172E1  -2.114516962735430E1  -1.345053882221885E2  
                        -3.636833892211298E1   9.509047617157683E1  -2.248488270540008E1  -2.172193047071259E1  -2.051911169293467E1  -1.702157901757361E2  -4.654265063147635E1   1.547981203826217E2  
                        -2.900641867656474E1   6.781435464811965E1  -2.069380254446650E1   1.518804979811893E2  -1.843183404475900E1  -5.168525199375117E1  -3.687561307376474E1   1.328331349567764E2  
                        -2.146235322936402E1  -1.003365329943033E2  -4.726878036471724E1   1.503980366704533E2  -3.698160026563142E1   1.649386543848750E2  -2.141649386795955E1  -1.198301813944052E2  
                        
 4.807120120120120E10   -1.592429094604447E1  -1.336140021743041E2  -3.644276860059530E1  -1.552824155160922E2  -2.876557580749646E1   2.039466952798638E1  -2.125449398606043E1   1.726696924684952E1  
                        -3.654115130918379E1  -1.141659370588616E2  -2.327834324577172E1  -2.016226974475562E1  -2.068597075806495E1  -1.738355787764068E1  -4.677753919234111E1   1.415450222403161E2  
                        -2.884023611146066E1   2.162068599176526E1  -2.066436316904452E1  -5.665562676512146E1  -1.575634910668251E1  -1.057558765033520E2  -3.679320444231268E1  -7.897740341654526E1  
                        -2.161915243000663E1   5.139910988645608E1  -4.700639863669284E1   1.394458912668978E2  -3.687507854434892E1  -4.373519633777512E1  -1.986659325772767E1  -1.012248708769699E2  
                        
 4.814126126126125E10   -1.389510969133709E1  -1.638628289074888E2  -3.635853896911772E1  -3.361956392952819  -2.912179584136870E1  -2.282400037005550E1  -2.117730060221799E1   1.677077188251705E2  
                        -3.644432641116389E1   3.440368209449278E1  -2.634234064946054E1  -4.397399109812231E1  -2.114795932976540E1   1.346510485766611E2  -4.618217609627931E1   1.312111211717675E2  
                        -2.933996378293289E1  -2.264953896536524E1  -2.056901572856865E1   9.515740522877589E1  -1.408786952914417E1  -1.339082395875518E2  -3.695701853680141E1   7.159572746586264E1  
                        -2.140195545382631E1  -1.579442058550457E2  -4.654082964595818E1   1.194905748445849E2  -3.680056485843820E1   1.069357379846742E2  -2.076503100674150E1  -8.440930475581732E1  
                        
 4.821132132132132E10   -1.445427166981788E1   1.620175928005334E2  -3.638557392533312E1   1.466934753757095E2  -2.896733894053151E1  -6.486167675039683E1  -2.130931067244178E1  -4.029779420011160E1  
                        -3.647954076424759E1  -1.739651258674931E2  -2.223774231196988E1  -4.593562768429922E1  -2.067662581094011E1  -7.658481968673576E1  -4.669706776498903E1   1.126506427041037E2  
                        -2.890643210831002E1  -6.614935748821139E1  -2.086370414780095E1  -1.138067162317983E2  -1.550126952959962E1  -1.688908221219830E2  -3.656737155945547E1  -1.378328213030290E2  
                        -2.133034847027556E1  -4.990755228776812  -4.649435017181308E1   1.095737419186447E2  -3.715519255134673E1  -1.008867176887574E2  -2.415605664271812E1  -9.501886279943412E1  
                        
 4.828138138138138E10   -1.356103347740671E1   1.266841043685673E2  -3.630510025130963E1  -6.354590920634723E1  -2.871651372041472E1  -1.151934578902102E2  -2.120636673169804E1   1.104176438880766E2  
                        -3.635270271854698E1  -2.337237219599302E1  -2.116617705540063E1  -3.821188432240049E1  -2.048092258725128E1   7.811456993068040E1  -4.628498350961885E1   9.963674673643047E1  
                        -2.872372044930278E1  -1.139371105719437E2  -2.087423549101012E1   3.792441295293334E1  -1.353142264797427E1   1.528126015683268E2  -3.664503481095345E1   1.204461042069992E1  
                        -2.137007405377362E1   1.480496292562814E2  -4.684962873205801E1   9.522317914253459E1  -3.666475079900568E1   4.837900481791171E1  -2.192760415825388E1  -1.191737012229992E2  
                        
 4.835144144144144E10   -1.359683793732085E1   9.164922470379932E1  -3.666402441691364E1   8.683113860246860E1  -2.896749081163106E1  -1.587247974459709E2  -2.142021655601547E1  -9.766999178749032E1  
                        -3.627995590409414E1   1.260679486077987E2  -2.510694059618425E1  -4.635901856667550E1  -2.042816748251726E1  -1.292628763337667E2  -4.656344626942187E1   8.478919599817867E1  
                        -2.906886913142209E1  -1.604351590075484E2  -2.082566081920605E1  -1.718177749540088E2  -1.258000158465771E1   1.389393988541852E2  -3.686085305370954E1   1.632024630690641E2  
                        -2.122368955215024E1  -6.203080224079850E1  -4.684450086838939E1   8.267847992806935E1  -3.654379376722216E1  -1.591195919035783E2  -1.954436498736635E1  -1.002403189626631E2  
                        
 4.842150150150150E10   -1.422389049457012E1   5.442174746324160E1  -3.678735705303277E1  -1.237923684763466E2  -2.908148834648485E1   1.547212857384111E2  -2.151091277014001E1   5.397201447388412E1  
                        -3.631088612667988E1  -8.430855316719253E1  -2.205119667325281E1  -6.309302315798057E1  -2.071803005784345E1   2.390186234888132E1  -4.656531533471330E1   7.153010223898251E1  
                        -2.878205006443199E1   1.551600361987955E2  -2.096215573408135E1  -1.977953589856411E1  -1.525018269067160E1   9.280880247703954E1  -3.655710140293226E1  -4.686274380149168E1  
                        -2.137343425003769E1   8.761339376171483E1  -4.676858180651268E1   6.632368192082788E1  -3.700145108411470E1  -1.292567554347663E1  -1.983592628170664E1  -7.697156488339586E1  
                        
 4.849156156156155E10   -1.419495635031477E1   1.799071414158014E1  -3.670112335123713E1   2.654214053297424E1  -2.864911162478483E1   1.087105298632645E2  -2.176535394888338E1  -1.552383507196001E2  
                        -3.659668128914848E1   6.388063200275007E1  -2.102193082634922E1  -5.461406919647436E1  -2.061679325902132E1   1.706767542675968E2  -4.676987925722450E1   5.885469826236445E1  
                        -2.859820383536442E1   1.051922544511987E2  -2.119644423591049E1   1.324578436847921E2  -1.368032897457343E1   5.361591040524066E1  -3.665044694425534E1   1.009700036117897E2  
                        -2.138746179186418E1  -1.216281440803324E2  -4.689150590072126E1   5.318605363653748E1  -3.642482223001687E1   1.369225625091030E2  -2.283839827034784E1  -6.822431474010340E1  
                        
 4.856162162162162E10   -1.566375358196074E1  -2.396571769104220E1  -3.683817634216254E1   1.779885611162964E2  -2.894014160379602E1   5.969840860494681E1  -2.180893948898084E1  -3.423416860449772  
                        -3.661584942269866E1  -1.460060517404518E2  -2.193204712045758E1  -5.697171391465360E1  -2.061446964730739E1  -3.945069356692963E1  -4.693897336081473E1   4.649914172209310E1  
                        -2.901940284115653E1   5.925895106208382E1  -2.100657326339992E1  -7.568673732575557E1  -1.611207962367228E1   2.551306813983772E1  -3.673248024348968E1  -1.059988283145997E2  
                        -2.158045242440364E1   2.975559062008864E1  -4.698818154720021E1   3.995437464724521E1  -3.658344947796618E1  -7.514817618753918E1  -2.476250689092168E1  -1.067977286273545E2  
                        
 4.863168168168168E10   -1.524401457149050E1  -6.716968526548482E1  -3.671386183326507E1  -3.149074936722494E1  -2.937357045721174E1   1.729596035330577E1  -2.150461502666735E1   1.484632177567001E2  
                        -3.693500772520565E1   6.404486552280626  -2.232591641387716E1  -7.842130681800516E1  -2.115947054034226E1   1.132164194118166E2  -4.634980849893866E1   2.822756312764548E1  
                        -2.927053435160542E1   1.606020335807537E1  -2.090484774519965E1   7.501616150851909E1  -1.571072115332621E1  -4.662598362879810E1  -3.686354271503030E1   4.516443255906966E1  
                        -2.179557162366242E1  -1.777390852620358E2  -4.694268176230421E1   2.487923498621526E1  -3.725813104624539E1   7.973543839269210E1  -2.043259661076936E1  -8.943899331256506E1  
                        
 4.870174174174174E10   -1.606575335096728E1  -1.063121326129618E2  -3.689484903435063E1   1.171331425405479E2  -2.937000496779141E1  -3.196924456609027E1  -2.179636650447858E1  -6.061414989910753E1  
                        -3.689751605370303E1   1.552280392577792E2  -2.153971750295542E1  -7.875916836562084E1  -2.153793263633391E1  -9.697448923669043E1  -4.736113404067099E1   1.474840980057845E1  
                        -2.939307778304531E1  -3.123593752269374E1  -2.121606430616435E1  -1.341626494789124E2  -1.483092130162134E1  -7.627799526804913E1  -3.702375308278788E1  -1.670322792249679E2  
                        -2.191774984190668E1  -2.592462348164290E1  -4.726701217880652E1   1.035724039377815E1  -3.717424230355768E1  -1.330117171504960E2  -1.893527436098461E1  -6.854042117136756E1  
                        
 4.877180180180180E10   -1.476048880905067E1  -1.566098358123085E2  -3.707323516919517E1  -9.098960172197499E1  -2.976189648039217E1  -7.827802860204425E1  -2.194165172411501E1   9.294939076228620E1  
                        -3.748228580445471E1  -5.463013811282841E1  -2.150940134831012E1  -9.130497032308367E1  -2.127488051351476E1   5.480430528600537E1  -4.690738919781889E1   1.507157041957258  
                        -2.981249468825891E1  -8.022245656257303E1  -2.124304429605317E1   1.772279537416313E1  -1.432908339838633E1  -1.233984174825620E2  -3.738441195474578E1  -1.548460688454292E1  
                        -2.223866128815451E1   1.251160639036502E2  -4.709879975358948E1  -1.750431266549591  -3.752674825111892E1   1.825553149733015E1  -2.283358831521685E1  -5.006115229906540E1  
                        
 4.884186186186186E10   -1.293668982113518E1   1.715128454841045E2  -3.738841767677793E1   5.893905719023247E1  -3.002146347192484E1  -1.214573330541500E2  -2.172360311320627E1  -1.163960493841913E2  
                        -3.752101075908791E1   9.835919259317898E1  -2.260057917217866E1  -9.186199612273308E1  -2.136846960996593E1  -1.503873691081438E2  -4.704186823631878E1  -1.663936157436909E1  
                        -3.005833337336657E1  -1.214190090561704E2  -2.147946955687131E1   1.704051130261830E2  -1.203851356300692E1  -1.612109814839075E2  -3.750184515066892E1   1.336900360004782E2  
                        -2.227008087773714E1  -8.211817640037900E1  -4.741201735039101E1  -1.837129773758997E1  -3.774227782621548E1   1.671876492925944E2  -2.689094598677406E1  -5.154676595932885E1  
                        
 4.891192192192192E10   -1.281119891327543E1   1.339090089771408E2  -3.765818277366360E1  -1.499199824894099E2  -3.002728689118065E1  -1.647365794479637E2  -2.232711387545611E1   3.506869589034839E1  
                        -3.718072438492003E1  -1.121353163870962E2  -2.130182481573134E1  -9.810622558677729E1  -2.126385851158674E1   1.009693845763120  -4.723949285261762E1  -3.050416335370818E1  
                        -2.973314192028478E1  -1.680657335907581E2  -2.129999373953783E1  -3.782217008504481E1  -1.181993376211662E1   1.706768328849105E2  -3.786110251152663E1  -7.482974249779852E1  
                        -2.189804933780431E1   6.940332362040419E1  -4.771239009655389E1  -3.042262463204488E1  -3.757724457744598E1  -4.085223350349062E1  -2.254810634149781E1  -7.055530765223826E1  
                        
 4.898198198198198E10   -1.150682905606028E1   1.005508060225794E2  -3.785327056301153E1   1.662108501159512  -2.975126917526015E1   1.455196831633064E2  -2.235498329195807E1  -1.700567483893914E2  
                        -3.791525141429236E1   3.626608692059148E1  -2.030078560078834E1  -1.113128363799282E2  -2.161130034829204E1   1.476894669205621E2  -4.780731007669237E1  -4.364004844344392E1  
                        -2.988604656009834E1   1.430539884103475E2  -2.168327941771011E1   1.138139851634178E2  -1.130776954204547E1   1.365480465345927E2  -3.782153826082610E1   7.626355927859896E1  
                        -2.237435887294889E1  -1.414989877082417E2  -4.777493162074159E1  -4.348716742766606E1  -3.810522893310728E1   1.094994676521516E2  -2.000927811890945E1  -5.658179531464221E1  
                        
 4.905204204204204E10   -1.174983832150411E1   6.700155504101188E1  -3.821149378806005E1   1.537356349933284E2  -3.057903378307669E1   9.947499723097465E1  -2.212983703332304E1  -2.109760942757086E1  
                        -3.799768528055168E1  -1.698088583809301E2  -1.918839652171410E1  -9.775904822615209E1  -2.097583134546764E1  -5.698065083220578E1  -4.845986684915610E1  -5.732350706186338E1  
                        -3.065358236072349E1   9.577526354856258E1  -2.161994106683033E1  -9.291309146560974E1  -9.985135844808333   8.862648948486788E1  -3.789334273154422E1  -1.342582358504662E2  
                        -2.228674577967889E1   1.158841743084140E1  -4.849520329689788E1  -5.808934411451389E1  -3.810046084658179E1  -9.823262137931975E1  -2.038900984798648E1  -2.547570270991497E1  
                        
 4.912210210210210E10   -1.299671970000475E1   2.461379045932007E1  -3.836040790248195E1  -5.483066288201810E1  -3.027078903149107E1   5.631442468598336E1  -2.263260582014789E1   1.305036846014969E2  
                        -3.789704129522085E1  -2.263843648812472E1  -2.172152002282213E1  -1.016448622796458E2  -2.105445139642083E1   9.395782387828278E1  -4.867917162564614E1  -6.776414588444958E1  
                        -3.046290387674464E1   5.180796017282344E1  -2.138497724991446E1   5.730080418779612E1  -1.158460621273849E1   6.338748757113822E1  -3.838615296241949E1   1.881047897760507E1  
                        -2.220611732310329E1   1.599064747620101E2  -4.876515932250084E1  -6.847087689210723E1  -3.784513067957222E1   5.330904092827986E1  -2.072419422116690E1   1.014679591512756E1  
                        
 4.919216216216216E10   -1.313848594171741E1  -1.736978655564428E1  -3.877344753709112E1   9.455529601555899E1  -3.071964271002032E1   8.448261343349694  -2.252854177790579E1  -7.615145410409571E1  
                        -3.881475001330090E1   1.271724269056280E2  -2.002799382347351E1  -1.311650605325316E2  -2.151050636762026E1  -1.172269356901312E2  -4.925591452422075E1  -8.150719929844229E1  
                        -3.082422474283447E1   1.718074426980621  -2.170430806461069E1  -1.525303569553663E2  -1.384412431576367E1   1.163275293421832E1  -3.823441140177751E1   1.704286411227517E2  
                        -2.270567625907738E1  -4.772993990935017E1  -4.918573954101858E1  -8.555282946264734E1  -3.854492212056200E1  -1.575248092771312E2  -2.789130948071763E1  -1.344998098173852E1  
                        
 4.926222222222222E10   -1.351896373733783E1  -6.638330160744701E1  -3.907873207253387E1  -1.095347526628359E2  -3.153634773318589E1  -3.677634743740665E1  -2.262347975804370E1   7.583780430467327E1  
                        -3.942051231061162E1  -7.719942897315457E1  -1.814028810662568E1  -1.164047723858853E2  -2.200019673453230E1   3.793520177162597E1  -4.926028099297868E1  -9.339358290560799E1  
                        -3.170733614155554E1  -4.162056671848769E1  -2.174444729846178E1   9.440195522475937E-1  -1.133979228476186E1  -3.802162514894982E1  -3.855743238970162E1  -4.230421234076360E1  
                        -2.282668161036674E1   1.046695266268441E2  -4.953650173937592E1  -9.619514681271630E1  -3.903334593329794E1  -7.930141329156387  -2.022805483117312E1  -3.676246481643363E1  
                        
 4.933228228228228E10   -1.292401748038286E1  -1.105173748121968E2  -3.887322111551428E1   4.139657352848267E1  -3.188748174838929E1  -7.816647832802843E1  -2.244326098425028E1  -1.325281277236524E2  
                        -3.891015838212330E1   7.389555505626203E1  -2.056242767132138E1  -1.152179033633898E2  -2.153411276983051E1  -1.729821761667234E2  -4.960453210166052E1  -1.094433358753639E2  
                        -3.197899956996195E1  -8.537763906821481E1  -2.180584711968232E1   1.520965220748976E2  -1.401434905814886E1  -7.699679975038163E1  -3.919149468233609E1   1.122909882425837E2  
                        -2.280767808358009E1  -1.047657975820424E2  -4.922313834516736E1  -1.097824031055885E2  -3.934518668266176E1   1.460215943088480E2  -1.700853459442306E1   4.682940096882041E-1  
                        
 4.940234234234234E10   -1.235571409314878E1  -1.512362244011138E2  -3.932240547712431E1  -1.679452931506831E2  -3.186445811926103E1  -1.235642109152552E2  -2.292787102140728E1   2.008372019832510E1  
                        -3.950600781287356E1  -1.360503618192467E2  -2.039695737358660E1  -1.433601800691770E2  -2.237505085810741E1  -1.813125187793070E1  -4.964724827236383E1  -1.234233877666898E2  
                        -3.201159561848287E1  -1.297706571751911E2  -2.193910731607911E1  -5.848205868483707E1  -1.227014257224317E1  -1.269113821639021E2  -3.920564313407703E1  -9.762845120401151E1  
                        -2.294107352369447E1   4.931622321073571E1  -4.996753239002515E1  -1.233160553841662E2  -3.964152567010802E1  -6.257142494885005E1  -1.919114228976997E1   3.037772495098254E1  
                        
 4.947240240240240E10   -1.169419825551102E1   1.684726572722939E2  -3.964423854091378E1  -1.480399649761573E1  -3.257045691239752E1  -1.701124013890716E2  -2.283866193383585E1   1.710676928660326E2  
                        -3.965602344941954E1   1.981943071227819E1  -1.788137782314043E1  -1.350407783013839E2  -2.255787510635701E1   1.361500466624763E2  -5.012429144248101E1  -1.350768289992911E2  
                        -3.230256046272935E1  -1.756258683347505E2  -2.237398652371475E1   9.485647602175223E1  -1.087355700928121E1  -1.593342716901429E2  -3.967061321098176E1   5.222620679565000E1  
                        -2.320592348198247E1  -1.576038689757031E2  -5.058399304955953E1  -1.364505375720048E2  -4.015931533167098E1   8.989343040261363E1  -2.822974647054018E1   1.322953835552364E1  
                        
 4.954246246246246E10   -1.148141003858468E1   1.266786914973609E2  -3.972126478683436E1   1.375176575650559E2  -3.272373013540085E1   1.484307384322794E2  -2.309644138031441E1  -3.798120358999658E1  
                        -3.952587434384541E1   1.688374769375919E2  -2.053331046916221E1  -1.278260187052085E2  -2.218655520867569E1  -7.338478113329572E1  -5.004734170820051E1  -1.484820229451076E2  
                        -3.265127664636601E1   1.414067739417271E2  -2.233459864254882E1  -1.114895989520533E2  -1.113349531242905E1   1.543618184326783E2  -3.993662965158661E1  -1.538683443582899E2  
                        -2.290815879454260E1  -6.574835448290555  -5.076547116667579E1  -1.495824506938674E2  -3.987759956606845E1  -1.163460449279863E2  -2.023445979180323E1  -1.560070797058717E1  
                        
 4.961252252252252E10   -1.026282313319433E1   8.858068357523760E1  -3.975030307313896E1  -7.148104132091829E1  -3.233063524290046E1   1.032172230006807E2  -2.313189967739513E1   1.137556720608535E2  
                        -3.961690227635008E1  -3.853652621240532E1  -2.135683900304033E1  -1.557775002289288E2  -2.171908490153257E1   8.061896269076922E1  -5.093014982190196E1  -1.655472907385017E2  
                        -3.235219786343229E1   9.718861834736730E1  -2.205357990672642E1   3.959186271198203E1  -9.193963914476402   1.224820172340285E2  -4.002206982571973E1  -1.170583519542567E-1  
                        -2.305759562411258E1   1.453047756384961E2  -5.122614338720143E1  -1.652310188204571E2  -4.012651806243738E1   3.846404673015220E1  -1.604966102067228E1   1.189492051032559E1  
                        
 4.968258258258258E10   -1.069012959562528E1   5.242695265684846E1  -4.037131936149512E1   8.169023046433499E1  -3.249287608273403E1   5.644759249282684E1  -2.323436384942874E1  -9.284993314608984E1  
                        -3.993147963682326E1   1.121216142327453E2  -1.894065150088676E1  -1.631931777548374E2  -2.219463595367301E1  -1.293914877012209E2  -5.120213613706351E1  -1.732585762722053E2  
                        -3.275902758934486E1   4.976585500080830E1  -2.242458878016351E1  -1.688907825813770E2  -1.052811171061631E1   9.234665285962750E1  -4.012135116994956E1   1.504536701495132E2  
                        -2.304895854280604E1  -6.138656566442508E1  -5.185622402998271E1  -1.743670984491437E2  -4.000911037342343E1  -1.709027889885860E2  -1.699981809410973E1   3.487405481302000E1  
                        
 4.975264264264264E10   -1.120131583869097E1   6.200197776104427  -4.040276122806278E1  -1.233239569831105E2  -3.327753167035536E1   1.131391053675903E1  -2.315364988871179E1   5.943798822121747E1  
                        -4.011748858506959E1  -9.290755086897235E1  -1.841782122265415E1  -1.593608881388492E2  -2.201942334409825E1   2.279755241725021E1  -5.275290909378446E1   1.766438070169758E2  
                        -3.324183049840877E1   4.095946819920899  -2.239142328555213E1  -1.512484408511485E1  -1.105167153304904E1   4.078719850845371E1  -4.050867421811260E1  -5.529538040094558E1  
                        -2.305876877614137E1   8.909026110123372E1  -5.262642067688957E1   1.747067380225579E2  -4.035587789216419E1  -1.991072484636602E1  -2.133116446150004E1   4.712482291679624E1  
                        
 4.982270270270270E10   -1.186758885383911E1  -2.754498153983560E1  -4.024090316724453E1   2.817264381090463E1  -3.337396688970966E1  -3.108600358132826E1  -2.324480684221502E1  -1.487073168318918E2  
                        -4.026212381510570E1   5.887897786505808E1  -1.926179554995145E1  -1.598158155273031E2  -2.182169329708745E1   1.724140561591709E2  -5.227588237099471E1   1.616093381085988E2  
                        -3.363004482697878E1  -3.873281256447537E1  -2.213581325849901E1   1.354836167285014E2  -1.108608800757032E1   4.511749587225920  -4.072318472101474E1   9.543493952911344E1  
                        -2.341768481845071E1  -1.204146823752779E2  -5.211458159937330E1   1.632135694746702E2  -4.027925985551557E1   1.323458642112538E2  -2.058563732065232E1   1.320854287027605E1  
                        
 4.989276276276276E10   -1.290934036867807E1  -7.843706187044917E1  -4.046359256173921E1   1.778955431233130E2  -3.323713925661632E1  -8.001349211488521E1  -2.323617765242079E1   3.151208258716074  
                        -4.046841295679656E1  -1.492588134956301E2  -2.046677488992668E1  -1.645300055900649E2  -2.184894054661984E1  -3.658342519173153E1  -5.266974603372925E1   1.461324567598315E2  
                        -3.347043192392835E1  -8.562928640224727E1  -2.210563168171314E1  -7.440463889496988E1  -1.317896567306137E1  -4.148781837313771E1  -4.044734998555275E1  -1.146582454094826E2  
                        -2.368661384152788E1   3.310824214902913E1  -5.267348040566680E1   1.449474319267393E2  -4.091449291410108E1  -7.868320654287483E1  -1.679890923033721E1   2.281365883064776E1  
                        
 4.996282282282282E10   -1.256102308809439E1  -1.175527228284076E2  -4.071147907303578E1  -2.709096994279084E1  -3.419491397292969E1  -1.276049350749999E2  -2.344382546661666E1   1.537739054091673E2  
                        -4.103452128637897E1   6.627983542006229  -1.985713342015053E1   1.793363293121379E2  -2.265509836514271E1   1.168953998868257E2  -5.337200918624023E1   1.416029479249776E2  
                        -3.428211058006039E1  -1.303517765845918E2  -2.224002847459279E1   7.842987348782636E1  -1.289944470798620E1  -9.369581112423643E1  -4.066429430681144E1   3.779734859842744E1  
                        -2.343809687621589E1  -1.729452533481333E2  -5.320176201577519E1   1.339686434559885E2  -4.105746709440273E1   7.587269415717996E1  -1.597623269074451E1   4.405743541832874E1  
                        
 5.003288288288288E10   -1.311552699475242E1  -1.636841179810264E2  -4.045897280966806E1   1.247785390433941E2  -3.471639533165915E1  -1.677997042229959E2  -2.321214009669546E1  -5.302747183033448E1  
                        -4.046903708319425E1   1.609924124411630E2  -1.931879173542990E1  -1.749541859464978E2  -2.229019063571449E1  -8.974809432378835E1  -5.273952616723622E1   1.250984488152838E2  
                        -3.481999677098587E1  -1.714842669404835E2  -2.194207923622849E1  -1.297588814837296E2  -1.233583616979144E1  -1.302013524487927E2  -4.100208448318629E1  -1.692518933218422E2  
                        -2.357632511522060E1  -2.054569880126135E1  -5.268775594867330E1   1.235832918296352E2  -4.098210826119878E1  -1.301128299846394E2  -1.855600404074706E1   6.379316538086483E1  
                        
 5.010294294294294E10   -1.185987191111041E1   1.533302196956908E2  -4.061619614398871E1  -8.612518176510116E1  -3.446240871721430E1   1.482306648640223E2  -2.354532709600363E1   9.597980308285194E1  
                        -4.048319370896530E1  -4.698924887656143E1  -2.072776790799538E1  -1.688427726343522E2  -2.213221943852285E1   6.160655796427696E1  -5.320110112809964E1   1.064698212835535E2  
                        -3.441909391275596E1   1.454081952244490E2  -2.206290892739504E1   2.094654598669406E1  -1.288857213465938E1  -1.767893497554582E2  -4.107901741387530E1  -1.521685616516818E1  
                        -2.335705300874189E1   1.343486166083592E2  -5.364112219093898E1   1.076948810370052E2  -4.138829606387468E1   2.277309130773837E1  -2.085763776228070E1   2.882635103340801E1  
                        
 5.017300300300300E10   -1.132917985828177E1   1.185845900289906E2  -4.075779846270051E1   6.857151046053473E1  -3.444025614512663E1   1.016880367156076E2  -2.329972161641677E1  -1.080764413492625E2  
                        -4.093753343055159E1   1.050406842282366E2  -1.962073819613076E1   1.768211511093802E2  -2.240935264994104E1  -1.434819267780639E2  -5.391784063825318E1   9.805146841412278E1  
                        -3.470578637946199E1   9.667651118147656E1  -2.234579045867151E1   1.723733408931196E2  -1.065193774077043E1   1.425740266080226E2  -4.145236084586632E1   1.363004778378108E2  
                        -2.343384142138523E1  -7.599436570821547E1  -5.409214624669878E1   9.533888961173174E1  -4.139257160328743E1   1.756578310850867E2  -1.610726076632046E1   2.492643226396615E1  
                        
 5.024306306306306E10   -1.159685081574687E1   7.667413281215161E1  -4.088132222871325E1  -1.370443898646111E2  -3.547614318829209E1   5.743789589120072E1  -2.313930735884115E1   4.118678345480232E1  
                        -4.063876478983146E1  -9.986406109296068E1  -1.761225897307113E1   1.743042411899383E2  -2.217780638977176E1   8.996557707075723  -5.470016085883499E1   9.295034175647203E1  
                        -3.568949465991241E1   5.364786951737432E1  -2.232124020447436E1  -3.245531715972592E1  -1.152907206753391E1   1.138450682664193E2  -4.118024841340912E1  -6.825975142231920E1  
                        -2.325818562176451E1   7.617650230771284E1  -5.508515667687477E1   8.171567217914944E1  -4.152322898479048E1  -2.995811611634738E1  -1.448293696378800E1   5.451610394106758E1  
                        
 5.031312312312312E10   -1.150993362911881E1   3.799206484945189E1  -4.047101634689343E1   1.364978943212186E1  -3.516282132202017E1   1.647459360537788E1  -2.337967468345227E1  -1.668419372052600E2  
                        -4.033848393780482E1   5.101911286560716E1  -1.825144115758571E1  -1.718388734933891E2  -2.166085465627566E1   1.582427961964251E2  -5.527128312078690E1   7.255474441128838E1  
                        -3.505361969052922E1   1.365665857690189E1  -2.194757501596254E1   1.178088298433592E2  -1.231619981281582E1   7.298657945025163E1  -4.118606205095654E1   8.498723580838393E1  
                        -2.297520333286015E1  -1.332614827513863E2  -5.473854929346738E1   7.518711308369377E1  -4.097410427307773E1   1.236006864309512E2  -1.808944146080135E1   7.113178801144785E1  
                        
 5.038318318318318E10   -1.212741022154376E1  -9.191883060172604  -4.067745240058939E1   1.648296876378652E2  -3.496642067584391E1  -3.592396700573595E1  -2.330490047835066E1  -1.484835170178934E1  
                        -4.072295897949430E1  -1.606505714396494E2  -2.087797124132296E1   1.728430366590835E2  -2.154725851630354E1  -5.220755850390542E1  -5.615052542725783E1   6.962006076027957E1  
                        -3.511180235122781E1  -3.993698834872483E1  -2.202816428866794E1  -9.366897479631810E1  -1.083269792492195E1   3.780380234686705E1  -4.120810306062547E1  -1.232669306379852E2  
                        -2.323559036326497E1   1.775957644683667E1  -5.570130720569841E1   6.163848092380080E1  -4.105907296171700E1  -8.791115727070923E1  -1.885767814516407E1   5.362199469889268E1  
                        
 5.045324324324324E10   -1.222507865763968E1  -5.194803100106753E1  -4.089282131476237E1  -3.890843711768437E1  -3.649724187210597E1  -8.056098237326924E1  -2.336376856615533E1   1.383195987272628E2  
                        -4.103872745658740E1  -2.032842021933658  -1.802099768124226E1   1.600077578089608E2  -2.212064432507051E1   1.041030191495473E2  -5.623954233604587E1   5.696688717598647E1  
                        -3.647109104667764E1  -8.193086731101893E1  -2.207938893875285E1   6.210791710036116E1  -1.599685683802537E1   1.112808214263149  -4.137037677457150E1   2.822635700618921E1  
                        -2.346241047877727E1   1.708408157531060E2  -5.667787021528827E1   5.576569399786578E1  -4.140556869108744E1   6.730152578739360E1  -1.676310027982339E1   4.930583794109157E1  
                        
 5.052330330330330E10   -1.289314969267846E1  -9.106459532407978E1  -4.026101090555149E1   1.127066214702397E2  -3.641556087748889E1  -1.163475048769130E2  -2.307798850612074E1  -7.221798395086817E1  
                        -4.043192674809144E1   1.492301442742206E2  -1.740345553915691E1   1.718127673350880E2  -2.171148284665998E1  -1.089376727898316E2  -5.661222608331517E1   3.987635221664266E1  
                        -3.649641894450637E1  -1.218928329253965E2  -2.161240098400343E1  -1.475794476530370E2  -1.498477745966189E1  -6.138795334024673E1  -4.125503982548845E1  -1.792578473142611E2  
                        -2.335881389196525E1  -3.730804672909422E1  -5.645393286596671E1   4.213204612903361E1  -4.092791908048112E1  -1.416255979012237E2  -1.489721172226914E1   5.208048641972338E1  
                        
 5.059336336336336E10   -1.279500687018761E1  -1.307841430751722E2  -4.050568856914796E1  -9.831513508790214E1  -3.632028136486766E1  -1.694240871982734E2  -2.351806344057803E1   7.989747102285679E1  
                        -4.058680154924334E1  -5.930385468751889E1  -1.907752264388727E1   1.732408552751342E2  -2.173806409750397E1   4.160478998204138E1  -5.687532530972267E1   3.187756836579541E1  
                        -3.619611928324550E1  -1.707219391381358E2  -2.167075897288509E1   1.567214189856331  -1.474015692704176E1  -8.500086047567504E1  -4.137945571324834E1  -2.836193220580307E1  
                        -2.354758123287166E1   1.143264034173494E2  -5.618430815318619E1   2.564121626263764E1  -4.138558157667336E1   8.171021732442664  -1.634940485660724E1   6.555591178315504E1  
                        
 5.066342342342342E10   -1.376376711233279E1  -1.732735463004295E2  -4.063618673326267E1   5.511641362963785E1  -3.772637836302418E1   1.465253100785968E2  -2.329868029581720E1  -1.275033749616353E2  
                        -4.058293345383223E1   9.440184091926615E1  -1.838506387193549E1   1.600654978501437E2  -2.185043877372632E1  -1.629499791521907E2  -5.758218220744450E1   2.134084241897672E1  
                        -3.769041819183305E1   1.443010577080095E2  -2.189039164648281E1   1.545470907229210E2  -1.719711352476223E1  -1.532395072511082E2  -4.149391356856742E1   1.235116537091326E2  
                        -2.345516123759515E1  -9.108114749128831E1  -5.733976077798003E1   1.609182610677859E1  -4.153464270588383E1   1.631213308247377E2  -1.796469985787655E1   6.670197026835292E1  
                        
 5.073348348348348E10   -1.422292258079725E1   1.419777299172434E2  -4.013170295433412E1  -1.506069567622421E2  -3.829584019772583E1   1.107190053047206E2  -2.338284154164116E1   2.369093530121793E1  
                        -4.022822698060855E1  -1.129754642179856E2  -1.882539575629058E1   1.584015253247780E2  -2.191389714570051E1  -1.084855166572781E1  -5.708228391858793E1   1.235556980069188E1  
                        -3.820820930790315E1   1.074069530373231E2  -2.186181195556150E1  -5.371939323543772E1  -1.394499376376334E1   1.743534724948561E2  -4.133761595244970E1  -8.066907824168752E1  
                        -2.311852641002993E1   6.120742951434767E1  -5.791830089445465E1   6.800316863920399  -4.109582820332064E1  -4.257872262654308E1  -1.839500275432166E1   4.674792947748692E1  
                        
 5.080354354354354E10   -1.425086942002932E1   9.628303334659447E1  -4.005371648889362E1  -2.004588850723075E-1  -3.786038149046269E1   6.573132086629411E1  -2.325561400410061E1   1.753151345168075E2  
                        -3.976854584279116E1   3.718684860614039E1  -1.853007964790645E1   1.588276754174977E2  -2.155372916627109E1   1.370080405560874E2  -5.828440030278167E1   7.946659344413379E-1  
                        -3.778987071594293E1   6.332648318204679E1  -2.167524179611774E1   9.709068653004354E1  -1.530006328620921E1   1.522413229471440E2  -4.110687894508853E1   7.109292692100770E1  
                        -2.308778840012634E1  -1.499523346736698E2  -5.853465334740429E1  -4.605753870354220  -4.110774101647345E1   1.073076775160845E2  -1.533264174416846E1   4.908906074098320E1  
                        
 5.087360360360360E10   -1.292288628890731E1   5.257974550594242E1  -4.026561942567272E1   1.522584570716984E2  -3.819428552686414E1   1.942164814073457E1  -2.332242951508734E1  -3.191832449781427E1  
                        -3.978924318086892E1  -1.716224579056226E2  -1.856447313252220E1   1.565907351033551E2  -2.132592409695528E1  -7.151053344164301E1  -6.044185077303828E1  -7.079445683748078  
                        -3.811498933867994E1   1.622879007770013E1  -2.178718923273071E1  -1.113418096753868E2  -1.454789028833579E1   9.573683782023437E1  -4.119980859688146E1  -1.362739646558912E2  
                        -2.303220181028712E1   2.918980466542562  -5.992829615612311E1  -9.634391185636877  -4.100959029190481E1  -9.848719561169500E1  -1.552172826260114E1   6.542841694961119E1  
                        
 5.094366366366366E10   -1.334184798667922E1   1.744004942184242E1  -4.002276914497948E1  -5.395896745882528E1  -3.897763574089267E1  -1.802895125108885E1  -2.331483737752304E1   1.196059478875346E2  
                        -3.982474306886588E1  -1.984893519955082E1  -1.869187609503374E1   1.488252338131445E2  -2.130422773705372E1   8.113896743921430E1  -6.071696603781945E1  -1.580152230252376E1  
                        -3.927631004574027E1  -2.257041218979195E1  -2.155483194138608E1   4.118149149049334E1  -1.322092264242737E1   7.692678456003998E1  -4.132713212824679E1   1.783392357411856E1  
                        -2.282174064976461E1   1.537353727546286E2  -5.989508006467789E1  -2.446143861229217E1  -4.067494207776391E1   5.651347661287235E1  -1.791716170449550E1   6.854856257921213E1  
                        
 5.101372372372372E10   -1.314169192380750E1  -1.842666717079781E1  -3.961051044013582E1   9.774698989280219E1  -3.859862385200272E1  -5.572984328199237E1  -2.323725582298732E1  -8.912819645838260E1  
                        -3.962607561518994E1   1.324042775807188E2  -1.805348405893038E1   1.384807953460930E2  -2.145305700273392E1  -1.279727702395831E2  -6.135609794614444E1  -2.370077023640538E1  
                        -3.884570679010098E1  -6.142298777126747E1  -2.168583157243640E1  -1.671157842583758E2  -1.621040603785468E1   6.037461553529767E1  -4.107519806218647E1   1.676737321166801E2  
                        -2.295543320158456E1  -5.592159069196947E1  -6.010956513973291E1  -2.712932684439710E1  -4.070293110272831E1  -1.539853468402703E2  -1.911500437471749E1   4.998658869393115E1  
                        
 5.108378378378378E10   -1.423825315800166E1  -5.309248272363237E1  -3.977275821815643E1  -1.114945683136600E2  -3.864515550057592E1  -1.045879414288268E2  -2.319911626632580E1   6.162428370937591E1  
                        -3.980972093074663E1  -7.887785500943011E1  -1.813277214146888E1   1.422929745196711E2  -2.126460673456176E1   1.933850524903232E1  -5.961252835734496E1  -3.534707260746740E1  
                        -3.874617144902803E1  -1.100497603697297E2  -2.150488023822712E1  -1.822736876683088E1  -1.681720305141134E1  -4.595609711034624  -4.092072367583807E1  -4.062949898993222E1  
                        -2.309649084347587E1   9.635656267725096E1  -5.987036331320623E1  -3.264818538735998E1  -4.063157964225998E1  -2.747480176887133  -1.756055866892598E1   4.555379312895336E1  
                        
 5.115384384384384E10   -1.592142703953057E1  -9.125845562645597E1  -3.981374267882095E1   3.958445526108138E1  -4.007707375579365E1  -1.482583991874096E2  -2.322841794192198E1  -1.447804662783647E2  
                        -4.001051722476802E1   7.465797345185531E1  -2.085770252693031E1   1.383274549278046E2  -2.129602437464067E1   1.707677299387054E2  -6.002622955456783E1  -4.179996240054265E1  
                        -4.021573115995024E1  -1.515120837155797E2  -2.151911874994557E1   1.330492693401627E2  -1.688785762404096E1  -2.078344589138718E1  -4.087271295024600E1   1.115330191898836E2  
                        -2.319154427265932E1  -1.129127747044837E2  -5.973794694155458E1  -4.678826708634241E1  -4.080239875419352E1   1.493810706593487E2  -1.712336664442530E1   5.888780540365616E1  
                        
 5.122390390390390E10   -1.625067225914028E1  -1.320826144589666E2  -3.972184820585019E1  -1.666050058540015E2  -3.982303554914353E1   1.799779777287479E2  -2.308525554285514E1   5.475438500476266  
                        -3.987870628831441E1  -1.332271506731503E2  -1.960801084938601E1   1.205755766954471E2  -2.161474742364216E1  -3.725341310660203E1  -5.954906603711670E1  -5.784312218886154E1  
                        -3.994823940751254E1   1.751471354398132E2  -2.160737884131158E1  -7.499848759887459E1  -2.652535441056991E1  -7.701138460561056E1  -4.100792895568890E1  -9.629967066584284E1  
                        -2.313922572177725E1   4.014675819358460E1  -6.078597018327842E1  -4.636193714109226E1  -4.082964440751682E1  -5.877196912076653E1  -1.868029683697305E1   6.935664515714936E1  
                        
 5.129396396396396E10   -1.625230103812161E1   1.758747154410989E2  -3.964535187484275E1  -1.447146856289243E1  -3.862468901461067E1   1.325259212183245E2  -2.327662985113306E1   1.559443529104905E2  
                        -3.984161792858925E1   1.795434042620818E1  -1.726772183132159E1   1.286293293610563E2  -2.189750306238960E1   1.124040559929288E2  -6.076241815058624E1  -6.352733137012091E1  
                        -3.889338850776652E1   1.280468453312667E2  -2.163172533234845E1   7.461832870758789E1  -1.634990456231771E1  -1.393523301533666E2  -4.086579205850266E1   5.320800756746004E1  
                        -2.332658459577686E1  -1.695243073527850E2  -6.146955255677084E1  -5.424196593520563E1  -4.092976134674822E1   9.105024085781939E1  -2.261740188451502E1   5.205313582338792E1  
                        
 5.136402402402402E10   -1.517171534030656E1   1.391249364776978E2  -3.970546342711511E1   1.362683758161882E2  -4.037665725151124E1   9.018262868276638E1  -2.306594117219813E1  -5.174718878326881E1  
                        -3.960610475827029E1   1.677337533823252E2  -1.879963874160507E1   1.295253940325651E2  -2.167229520051071E1  -9.744245352845839E1  -6.034254704918114E1  -8.506724930352928E1  
                        -4.020980976102462E1   8.283227514000858E1  -2.182608112899908E1  -1.336173820235032E2  -1.803796396850735E1  -1.550902630341479E2  -4.084462101724424E1  -1.527639818966586E2  
                        -2.312705776147095E1  -1.666762027027293E1  -6.041756488038208E1  -7.093804306342989E1  -4.076312801268499E1  -1.120813920986989E2  -1.917469502627897E1   3.953795377134588E1  
                        
 5.143408408408408E10   -1.554750601335693E1   1.034431381733440E2  -3.984129712636349E1  -7.062738420830408E1  -3.971641199530045E1   6.090758769276835E1  -2.334032098671190E1   1.009816583889414E2  
                        -3.961537210663622E1  -3.905188695452867E1  -1.927730345229828E1   1.142820142086079E2  -2.186650803747571E1   5.682956966530456E1  -6.232925917784299E1  -7.268235848227818E1  
                        -3.957472951923830E1   5.251103743896216E1  -2.197665221781891E1   1.829165504911426E1  -1.648270836169651E1   1.397652759520518E2  -4.112801108260842E1   1.341531504210253E-2  
                        -2.306250335532061E1   1.349975391930680E2  -6.167225551903819E1  -8.017101876149245E1  -4.068407826546130E1   4.092504266939920E1  -1.823944183313238E1   5.202517213169091E1  
                        
 5.150414414414414E10   -1.449892726651595E1   6.149703951283388E1  -3.938695864293357E1   8.255146148371348E1  -3.801509683751769E1   1.263207276345407E1  -2.316807300972537E1  -1.077677574846432E2  
                        -3.932956097541076E1   1.137994649271018E2  -1.757398848935025E1   1.176843156053239E2  -2.185144695723360E1  -1.490651958618553E2  -6.207093851223500E1  -7.649560621896592E1  
                        -3.803099747576279E1   3.368553053792510  -2.186321794668483E1   1.694438017408136E2  -1.261034142134692E1   1.255047863196286E2  -4.095905435246479E1   1.510879429766220E2  
                        -2.288164592087976E1  -7.471452874294285E1  -6.071668723503154E1  -7.501383086107687E1  -4.035604747525532E1  -1.663448620046436E2  -1.942042415786578E1   7.172259681740106E1  
                        
 5.157420420420420E10   -1.494198219061663E1   2.258008098247195E1  -3.945412072167775E1  -1.267543066582541E2  -3.859725666146824E1  -3.480762454596294E1  -2.354292795060675E1   4.222566896557431E1  
                        -3.922951155286625E1  -9.983751456261551E1  -1.856371270103794E1   1.222683209383235E2  -2.176501141173895E1  -2.504666838507553  -6.131889697031730E1  -9.484240510997149E1  
                        -3.864022705920470E1  -4.461498353207327E1  -2.179267154348195E1  -4.011072882329531E1  -1.582621239910083E1   8.885501475873886E1  -4.108052383873856E1  -5.988067202736395E1  
                        -2.311718949714188E1   7.499122971464607E1  -6.032061287759434E1  -8.908566537584645E1  -4.059216328377136E1  -1.454277493626490E1  -2.678627125099157E1   6.162662942368561E1  
                        
 5.164426426426426E10   -1.422645495752171E1  -9.428669826411749  -3.961421061393029E1   2.379456015824608E1  -3.858317283389928E1  -6.773511825650841E1  -2.362823061852815E1  -1.641492463539753E2  
                        -3.953869321862805E1   5.337199617153298E1  -2.019192281344809E1   1.141503317036130E2  -2.171902766659852E1   1.495841994078884E2  -6.120456968680256E1  -9.057514989693442E1  
                        -3.868493442549106E1  -7.729608572327135E1  -2.216687481988603E1   1.109026133200066E2  -1.373628593023972E1   4.119856399515297E1  -4.078605715282707E1   9.461185144177611E1  
                        -2.291648714597917E1  -1.336086496274891E2  -5.948071659070561E1  -9.320698581381015E1  -4.042101328588267E1   1.366024245523623E2  -2.176763533098213E1   2.790423258768489E1  
                        
 5.171432432432432E10   -1.482123467238156E1  -4.323122372028657E1  -3.943020696660075E1   1.782757774193007E2  -3.698898777409636E1  -1.128290662699552E2  -2.330219760022048E1  -1.253961369549262E1  
                        -3.935729383740638E1  -1.531403724127153E2  -1.880082723163563E1   1.107674211393844E2  -2.168520853830828E1  -5.698403725859311E1  -5.886764787580938E1  -1.048736404785149E2  
                        -3.709825766991600E1  -1.228540012655238E2  -2.221779307509260E1  -9.627685784368411E1  -1.319512758592447E1   2.841886731573632E1  -4.089352507936314E1  -1.123825043961757E2  
                        -2.316091334927271E1   1.838097289188652E1  -5.891921645801176E1  -1.015041835272928E2  -4.020776020765939E1  -7.044812305095000E1  -1.953321864663809E1   4.963713811437525E1  
                        
 5.178438438438438E10   -1.583459344387300E1  -8.655596475955555E1  -3.893612441330698E1  -3.140641252961995E1  -3.661479472956798E1  -1.608605446238946E2  -2.334645423740253E1   1.378910604572733E2  
                        -3.909009152787169E1  -2.335907917159875  -1.819860987692284E1   1.015733209057228E2  -2.182587771800619E1   9.092354731249290E1  -5.765463995826745E1  -1.175715734641337E2  
                        -3.704297582781894E1  -1.705669607422398E2  -2.198946320306183E1   5.535454637315298E1  -1.820200543125371E1  -2.635503979309515E1  -4.064391551105416E1   3.989600812814139E1  
                        -2.328185277788661E1   1.698238009305703E2  -5.861923470975305E1  -1.129307921283404E2  -4.018717463490738E1   7.828254681895804E1  -2.105888046854375E1   7.080434092880132E1  
                        
 5.185444444444444E10   -1.581579067718983E1  -1.225538502610444E2  -3.939579075910885E1   1.193957140163491E2  -3.666714608962015E1   1.549770161077595E2  -2.352382376626495E1  -6.947893066067832E1  
                        -3.935575877988750E1   1.474048022173425E2  -1.915175798281134E1   1.082385637065074E2  -2.194281920924415E1  -1.184497350229454E2  -5.641285541656630E1  -1.277571838218413E2  
                        -3.723660287161231E1   1.482678483750442E2  -2.194988520928871E1  -1.550120883555819E2  -1.513520703307032E1  -7.917566745057685E1  -4.048593215718223E1  -1.679763671382741E2  
                        -2.352444155691837E1  -3.916377604719696E1  -5.754539562271160E1  -1.309589761336623E2  -4.053906616610649E1  -1.299109107182578E2  -2.665063032595053E1   5.314615456093436E1  
                        
 5.192450450450450E10   -1.624566584118016E1  -1.712226996270809E2  -3.915455342474698E1  -8.746770353316727E1  -3.599690971156755E1   1.137923276308217E2  -2.325689444798690E1   8.354825467051460E1  
                        -3.926358997456703E1  -5.750453408583424E1  -1.994641856163863E1   1.081491442912358E2  -2.195300960924642E1   3.426780560196291E1  -5.639430936017728E1  -1.420486741393811E2  
                        -3.584999906000387E1   1.064929213681296E2  -2.232928318714392E1  -1.688937898350346  -1.662058323801997E1  -1.038626183339828E2  -4.074452347981674E1  -1.557564174559179E1  
                        -2.363395235014038E1   1.150731738400186E2  -5.749763529062571E1  -1.417810643920623E2  -4.043448245580050E1   2.431837085299730E1  -2.201520074031729E1   2.610161074134272E1  
                        
 5.199456456456456E10   -1.489288948624082E1   1.439301377584799E2  -3.917603377623741E1   6.366379189181984E1  -3.533119155472518E1   6.558112124993144E1  -2.366357147574212E1  -1.264355819316388E2  
                        -3.922951238762316E1   9.418488904997223E1  -2.134708193278182E1   9.188358048311956E1  -2.254235696873013E1  -1.725619366011965E2  -5.695757663259947E1  -1.534551399056565E2  
                        -3.512561258741369E1   5.650858646402642E1  -2.230714026794847E1   1.484515092794754E2  -1.583009184790496E1   1.793005320984503E2  -4.046775485999272E1   1.372532061424325E2  
                        -2.330991300861334E1  -9.345247493773947E1  -5.678000392790366E1  -1.448699025312201E2  -4.002107061300706E1   1.775169034321785E2  -1.882369092722807E1   3.909591182129756E1  
                        
 5.206462462462462E10   -1.440860397290473E1   1.074589255348348E2  -3.904845736792196E1  -1.453483898381277E2  -3.548248255962102E1   1.674881505337495E1  -2.353448253574277E1   2.652247551891654E1  
                        -3.899871975064698E1  -1.121935617010072E2  -1.972613393781548E1   8.737079229866741E1  -2.248619829126297E1  -2.065975010812096E1  -5.715973603669027E1  -1.623103080102663E2  
                        -3.536969050621461E1   9.442286643535413  -2.205724301844131E1  -5.989611913845933E1  -1.273367216376121E1   1.560829737595710E2  -4.013705928280055E1  -7.223148629841076E1  
                        -2.361931747711619E1   5.824479070432554E1  -5.665524166284374E1  -1.641835387867136E2  -4.051095872383107E1  -3.304966614284877E1  -1.917274957125865E1   6.728174001131377E1  
                        
 5.213468468468468E10   -1.268073945793844E1   6.510809202465437E1  -3.917160529918035E1   4.808210621832180  -3.517340077696230E1  -2.410078829023667E1  -2.348998713360897E1   1.746287337894619E2  
                        -3.865033039110438E1   3.923203862908881E1  -2.133403674768440E1   1.024605151423328E2  -2.222578802247191E1   1.282400429796906E2  -5.710622413200112E1  -1.782104744561739E2  
                        -3.504551366708575E1  -3.116400569139663E1  -2.235617770701478E1   8.991437098531912E1  -1.465073981480757E1   1.179720139637575E2  -4.041172236061588E1   7.988381142647771E1  
                        -2.331157680842617E1  -1.486776140942491E2  -5.656737274500012E1   1.792264898536667E2  -4.019203176628926E1   1.199878203272158E2  -3.254297949504517E1   6.806213459952333E1  
                        
 5.220474474474474E10   -1.249746211269965E1   3.437826036148913E1  -3.904545888685642E1   1.601386910572042E2  -3.373952547622044E1  -7.173350740030570E1  -2.349392686274102E1  -3.040824699629929E1  
                        -3.898445492932175E1  -1.691321069941847E2  -2.381405486254685E1   8.555993299672507E1  -2.225486948794866E1  -7.660752012789426E1  -5.684121035454690E1   1.746739777285790E2  
                        -3.401310203311898E1  -7.960079972655213E1  -2.239881711815077E1  -1.182402107679758E2  -1.161774388463993E1   6.979530024149273E1  -4.014830421745468E1  -1.252781862702392E2  
                        -2.324102136298006E1   1.538560365650179  -5.635671661577437E1   1.750147748445443E2  -3.960095251227273E1  -8.428995810062344E1  -2.412721207093053E1   1.066013483050596E1  
                        
 5.227480480480480E10   -1.333837847807694E1  -4.008009587618020  -3.857092568347942E1  -4.995092283051898E1  -3.411254714871526E1  -1.211574078435920E2  -2.336478932025906E1   1.201587686070595E2  
                        -3.849839207396493E1  -1.701435567860330E1  -2.053664138408348E1   7.368142434944903E1  -2.232806287840556E1   7.500632724902539E1  -5.475952420952446E1   1.587695091125358E2  
                        -3.423920774815298E1  -1.294566270293246E2  -2.238868633189285E1   3.376209720389981E1  -1.178632023272580E1   5.292428468354544E1  -3.975790366213535E1   2.388885876361916E1  
                        -2.325350353075656E1   1.518156893715995E2  -5.492364821521788E1   1.605471121738685E2  -3.950467422421158E1   6.424712956731639E1  -1.857320815805064E1   3.003989785664685E1  
                        
 5.234486486486486E10   -1.398800956285327E1  -4.138539507621546E1  -3.864003222235137E1   1.009436746494546E2  -3.422117269490799E1  -1.658760101015727E2  -2.366922598130720E1  -8.862058577756622E1  
                        -3.839704100816548E1   1.320717999824344E2  -1.970392835544952E1   9.585398438795919E1  -2.206532858473806E1  -1.383160774600667E2  -5.427951839096073E1   1.496355471158096E2  
                        -3.442401145163213E1  -1.716860140237092E2  -2.250871274195568E1  -1.760791456344066E2  -1.585832448949413E1   7.676388913007957  -4.010529337966891E1   1.760491888976506E2  
                        -2.346172855703296E1  -5.628950781470108E1  -5.477664929989452E1   1.468058029297496E2  -3.969615412417199E1  -1.437014621585041E2  -2.058304104218497E1   6.192454403876456E1  
                        
 5.241492492492492E10   -1.412246549315003E1  -9.099112342664397E1  -3.840947693215945E1  -1.092953794220836E2  -3.329682551055102E1   1.481554422767401E2  -2.372946916199118E1   6.452126436022164E1  
                        -3.855932712721406E1  -7.421614305033955E1  -2.274644967580544E1   8.413499903261436E1  -2.256353239700011E1   1.516486501333086E1  -5.479995008272642E1   1.396024574313682E2  
                        -3.321246616189106E1   1.444721486018478E2  -2.268203923375229E1  -2.372559565831427E1  -1.308952219012633E1  -3.660510644362249E1  -3.957639826506625E1  -2.786194054781821E1  
                        -2.379121733900844E1   9.589230212003987E1  -5.428613278304064E1   1.319647612343902E2  -3.941870498876121E1   7.358962662459208  -3.087078211787129E1   6.745652487114491E1  
                        
 5.248498498498498E10   -1.465851850866628E1  -1.346630003794620E2  -3.805106289196845E1   4.246584449486749E1  -3.294555889644796E1   9.318377835949541E1  -2.353789964207181E1  -1.441865895400475E2  
                        -3.838396621994765E1   7.735204410857362E1  -2.083818965018848E1   6.456173966593029E1  -2.245219614106327E1   1.679384627458843E2  -5.393564838473552E1   1.188396232081644E2  
                        -3.303262511586273E1   9.030753296853455E1  -2.261660167143238E1   1.299532710110277E2  -1.770540257777083E1  -5.440510455670423E1  -3.894267691951021E1   1.229806605926035E2  
                        -2.365723413958132E1  -1.122272844278565E2  -5.449037256369773E1   1.137010255466353E2  -3.886454125360314E1   1.571719186652827E2  -2.491266831627820E1  -4.471546895846756  
                        
 5.255504504504504E10   -1.386236608276807E1  -1.760882882378147E2  -3.805866666386867E1  -1.679156018602733E2  -3.375028110508902E1   4.899971714055401E1  -2.372412895421728E1   6.108004192690222  
                        -3.800403063974476E1  -1.326141009086616E2  -2.012408854397395E1   8.125073564661413E1  -2.250205447938475E1  -4.197624957558234E1  -5.266892124015024E1   1.096012810508791E2  
                        -3.353293118762466E1   4.619036958903616E1  -2.243530909560468E1  -8.184514407662202E1  -1.691208771055392E1  -1.541879579968677E2  -3.931113786814165E1  -8.992830693204023E1  
                        -2.390983782312786E1   4.019537659859118E1  -5.460636570198804E1   1.012942555982286E2  -3.919848019998936E1  -5.379876716913220E1  -2.046406073372638E1   2.724117840727127E1  
                        
 5.262510510510510E10   -1.304957850706155E1   1.424789781693198E2  -3.804229616001899E1  -1.814027325754570E1  -3.281227726052261E1   4.082521002457578  -2.376736616423714E1   1.575402866090736E2  
                        -3.820873715850685E1   1.966384852709793E1  -2.131062341683921E1   9.282698727407099E1  -2.302828099903171E1   1.090398240912725E2  -5.392156938259912E1   9.023742244361736E1  
                        -3.283866359534031E1   3.663205282578239  -2.271270410832671E1   6.851052383841676E1  -1.407968638889479E1  -1.699774798629289E2  -3.917655002277044E1   6.402083862689314E1  
                        -2.381741265672697E1  -1.680877346858619E2  -5.393358401968899E1   8.904750197054511E1  -3.908420961454373E1   9.981658127918014E1  -2.242454993817627E1   7.230522102734810E1  
                        
 5.269516516516516E10   -1.265418276887528E1   1.021226320730175E2  -3.794626326778610E1   1.340477828293475E2  -3.261777233294801E1  -4.537207949165909E1  -2.364735750210819E1  -5.004312958883063E1  
                        -3.782542342859452E1   1.733307514111803E2  -2.269338908290256E1   6.452395910287751E1  -2.297102432573371E1  -9.680106086726312E1  -5.393740479966860E1   8.927578804872431E1  
                        -3.240344528479878E1  -4.686384713131633E1  -2.293991477081958E1  -1.383784211431678E2  -1.707740707246309E1   1.383698507813592E2  -3.848405049159914E1  -1.450556206768960E2  
                        -2.350703337715118E1  -1.556789759951556E1  -5.331123032392400E1   8.004049488803862E1  -3.849052920236965E1  -1.076256315010218E2  -2.869165151532701E1   1.035085429851972E2  
                        
 5.276522522522522E10   -1.193820878689661E1   6.757452387092542E1  -3.765480890939251E1  -7.567827779688035E1  -3.261605608370361E1  -9.351270921847649E1  -2.369410386337939E1   1.010523169284441E2  
                        -3.765910424349907E1  -3.752638668669796E1  -2.073622459037930E1   6.550985497443358E1  -2.289390849895696E1   5.398382559613467E1  -5.210098364612283E1   6.997003397298177E1  
                        -3.267245587037741E1  -9.580360107741699E1  -2.279527477425227E1   1.357200176637833E1  -1.234016716869846E1   9.986539798628179E1  -3.857333203775886E1   4.840816947052203  
                        -2.320628545665867E1   1.368739525844830E2  -5.300091196394990E1   6.362934067203813E1  -3.843492793426710E1   4.547799967634322E1  -3.416860232177874E1   1.548806944364848E1  
                        
 5.283528528528528E10   -1.308460156342899E1   3.155333445448016E1  -3.735638844423472E1   7.438526810207250E1  -3.261791496826553E1  -1.384576229819818E2  -2.362323733532084E1  -1.092075595280238E2  
                        -3.722542474307814E1   1.133559135910647E2  -2.087584672824442E1   6.546693598261399E1  -2.266744181771231E1  -1.559161874786396E2  -5.171408770672841E1   5.277094065923333E1  
                        -3.233070498523851E1  -1.410451748829884E2  -2.284792324181711E1   1.640186344025786E2  -1.220196296974947E1   8.742280287165569E1  -3.832388498995510E1   1.559783319155471E2  
                        -2.350451878778994E1  -7.228107265314964E1  -5.252819573769978E1   5.093780820965841E1  -3.837494939148926E1  -1.662039399842852E2  -2.639126053578623E1   2.423327653734149E1  
                        
 5.290534534534535E10   -1.226313673374623E1  -9.089080183590465  -3.722284678519718E1  -1.354487358457299E2  -3.164018131068560E1   1.736704646535362E2  -2.392712244142780E1   4.451959252971935E1  
                        -3.692118027116475E1  -9.881167317811244E1  -2.286563173626144E1   6.980925007994691E1  -2.284195232458715E1  -7.034189401482438  -5.199683767793078E1   3.711018771940802E1  
                        -3.183854842918139E1   1.703389413702849E2  -2.335890315485498E1  -4.596168446153430E1  -1.426217452473149E1   3.587388206188513E1  -3.825608432037447E1  -5.254543110789560E1  
                        -2.350003483871856E1   7.856962285526298E1  -5.198339372197810E1   3.852405951948532E1  -3.798144344944495E1  -1.480385759830169E1  -2.500385420888707E1   5.768714329660462E1  
                        
 5.297540540540540E10   -1.364330119524516E1  -4.457433730170241E1  -3.703391412191785E1   1.356087735623983E1  -3.140944984933293E1   1.189276569773561E2  -2.350496022653447E1  -1.654297696936135E2  
                        -3.700915297941633E1   5.120193373061161E1  -2.285911803366836E1   6.191542630561524E1  -2.302322353078919E1   1.473672718401620E2  -5.085025777299600E1   2.043296062343532E1  
                        -3.172873242306293E1   1.194560442196297E2  -2.339466531175289E1   1.068736426252494E2  -1.133120738543931E1   7.440407308217885  -3.770681348614988E1   9.669778717480955E1  
                        -2.330844569583217E1  -1.301560880412385E2  -5.108471748315304E1   2.029466305603680E1  -3.735863325199108E1   1.348549439119223E2  -2.914961989777180E1   1.335618361756678E2  
                        
 5.304546546546546E10   -1.519048070839304E1  -8.478574711050277E1  -3.721710982067047E1   1.638919248254273E2  -3.177736762317809E1   7.324860694151663E1  -2.352867762385921E1  -1.509245039417637E1  
                        -3.719965184569424E1  -1.601716742200567E2  -2.251416881849351E1   5.624181243270582E1  -2.284880186791495E1  -6.538299905977426E1  -5.162190730894999E1   3.601733635763568  
                        -3.220117758990957E1   7.138051930971481E1  -2.321317881689820E1  -1.005382366910181E2  -1.399818809112572E1  -1.009823958225689E1  -3.811553024681752E1  -1.149925991864778E2  
                        -2.345554046386680E1   2.260552476403936E1  -5.193770753053951E1   2.931623507082052  -3.752960493137288E1  -7.655487653997150E1  -3.393532489204264E1   1.663964103414299E2  
                        
 5.311552552552552E10   -1.582468174623602E1  -1.247438683043274E2  -3.710824753911121E1  -4.996838150923070E1  -3.201698793055072E1   2.653768621758935E1  -2.361936209835712E1   1.357560889324230E2  
                        -3.696349059814828E1  -9.061747441897936  -2.257371760178252E1   5.790895215905351E1  -2.301189560122241E1   8.589475613134945E1  -5.190053806110641E1  -1.245040834121419E1  
                        -3.204627690859201E1   2.685548489545000E1  -2.327446669515127E1   4.843635850667889E1  -1.734417149765477E1  -6.730985358606115E1  -3.791877853775775E1   3.534881350834916E1  
                        -2.396010321805037E1   1.730316736794444E2  -5.158653576314043E1  -1.429669037680182E1  -3.785381537255531E1   7.152528399095338E1  -4.270574799615827E1  -3.419743794863162E1  
                        
 5.318558558558558E10   -1.602874367886811E1  -1.667641947525131E2  -3.747838505056237E1   1.009740849124121E2  -3.149455344138331E1  -2.574761463033007E1  -2.361967064624636E1  -7.415601249225534E1  
                        -3.765258404029338E1   1.402358316841670E2  -2.463778189607837E1   5.596532368132695E1  -2.345690973088072E1  -1.235166654433918E2  -5.173027584824106E1  -2.314690740396732E1  
                        -3.151143573222318E1  -2.559957627613985E1  -2.337459324999993E1  -1.610918867122845E2  -1.482819299292101E1  -1.035957602865632E2  -3.768324012498592E1  -1.747191029163936E2  
                        -2.382078059304760E1  -3.282349825979868E1  -5.194498822673861E1  -2.557877120398616E1  -3.791542248033968E1  -1.367112823793117E2  -2.917752935413385E1   7.831869282700808E1  
                        
 5.325564564564564E10   -1.405804861962004E1   1.514703001182417E2  -3.751718644835483E1  -1.064208234430820E2  -3.235545265652762E1  -7.820296758314521E1  -2.367559699732883E1   7.687439865472398E1  
                        -3.758148065568522E1  -6.725819794385049E1  -2.713863238132490E1   3.806217949977839E1  -2.378406390475838E1   3.331746467607770E1  -5.132150070723363E1  -4.134675745162591E1  
                        -3.261298851625379E1  -7.612944142261418E1  -2.348454804901290E1  -8.218140268919882  -1.984171770264429E1  -1.447191454942167E2  -3.754596171054726E1  -2.821546412510945E1  
                        -2.381785554892847E1   1.165944685701808E2  -5.135280753059600E1  -4.109708631445505E1  -3.784377183286129E1   1.054573228340327E1  -2.548694198439595E1   1.611018073528751E2  
                        
 5.332570570570570E10   -1.316022497736969E1   1.153474777731553E2  -3.729196732728351E1   4.225534926055779E1  -3.275404606156497E1  -1.189967363247031E2  -2.382707470948426E1  -1.336279378005843E2  
                        -3.738416779974514E1   8.134647909606586E1  -2.546531146296248E1   4.771674640799853E1  -2.398070632807781E1  -1.779089020200262E2  -5.176129224646650E1  -5.660380121306575E1  
                        -3.236750536915283E1  -1.196815513920405E2  -2.360487574697178E1   1.407251271557193E2  -1.354811907937295E1   1.460839879097323E2  -3.792155152243932E1   1.221588081335472E2  
                        -2.430078340158066E1  -8.803693200677925E1  -5.158811746681005E1  -4.951394387625700E1  -3.846387232765095E1   1.638392870737258E2  -2.261115262494011E1  -1.579765466296279E2  
                        
 5.339576576576576E10   -1.254733119976362E1   8.449664748545077E1  -3.770163772083889E1  -1.693824467018432E2  -3.199361332868185E1  -1.705646976956850E2  -2.422566780962996E1   1.981697743504116E1  
                        -3.750280229284493E1  -1.301691731569062E2  -2.514006529752685E1   6.812251723911696E1  -2.361675178534975E1  -2.862924627004158E1  -5.133246010729685E1  -6.954878972655136E1  
                        -3.176107205834865E1  -1.727290382790009E2  -2.418906712274085E1  -6.836322954084638E1  -1.183535939601006E1   1.328506365272372E2  -3.818022140748865E1  -8.762241821669534E1  
                        -2.408010047093373E1   6.178685509364489E1  -5.131214796218047E1  -7.286202222111740E1  -3.815332833386990E1  -4.491416742644272E1  -2.462229706342614E1  -1.201073782700654E2  
                        
 5.346582582582582E10   -1.200800307142032E1   5.441695880283805E1  -3.796469593011944E1  -1.826147344257216E1  -3.252706390631264E1   1.369829634715429E2  -2.421610161708722E1   1.732905431559769E2  
                        -3.787150540055027E1   1.914152793263108E1  -2.800072092809772E1   7.437170214283165E1  -2.404515528579755E1   1.272178779394299E2  -5.081689225768357E1  -8.759200528787677E1  
                        -3.276322013887799E1   1.342077010435204E2  -2.422920702743133E1   8.515955487200981E1  -1.353483417329612E1   8.345891529805061E1  -3.814042140000858E1   6.191065620971587E1  
                        -2.414859095673317E1  -1.461050891291112E2  -5.132097298034152E1  -7.740265977737489E1  -3.808764866906893E1   1.057449916733427E2  -3.989339152266059E1  -6.866028893729363E1  
                        
 5.353588588588588E10   -1.176896823212693E1   2.060033245568374E1  -3.807648264401376E1   1.333841907786734E2  -3.324866697928733E1   9.458584532797178E1  -2.409291973927059E1  -3.538749460682325E1  
                        -3.765906332716492E1   1.691880716718793E2  -2.775135530863959E1   5.864041907382357E1  -2.385306288180010E1  -7.952257556393164E1  -5.041822072337640E1  -1.029732426884422E2  
                        -3.344891473386843E1   8.991994596709913E1  -2.434352930182113E1  -1.231298435222739E2  -9.056690964551180   5.280689692441335E1  -3.877496360652778E1  -1.499341867609754E2  
                        -2.370443175834161E1   3.214464813299762  -5.058501947524486E1  -9.763104750903446E1  -3.817967324504478E1  -1.034365971593168E2  -2.346570048536659E1   1.620909894693408E2  
                        
 5.360594594594594E10   -1.250739530628113E1  -1.548031168869564E1  -3.835251062215988E1  -7.717970691232181E1  -3.288380610164172E1   4.848273352972690E1  -2.452663690730190E1   1.149394959477298E2  
                        -3.801647459054740E1  -4.354111308287293E1  -2.444853564585856E1   4.557154647266817E1  -2.400413460906018E1   6.713307437778697E1  -5.037265089199522E1  -1.186129787548194E2  
                        -3.315584862096983E1   3.991899082928978E1  -2.459759414262195E1   2.758171232854649E1  -1.070662976573039E1   3.132208177776333E1  -3.877082749347257E1   1.272562597706805  
                        -2.419884469567213E1   1.554455731982169E2  -5.077070058847964E1  -1.174574227037776E2  -3.817638238092608E1   4.756015095951063E1  -1.906716446453535E1  -1.624753148859554E2  
                        
 5.367600600600600E10   -1.369873302921396E1  -5.209583294215766E1  -3.872496301840016E1   7.321860590076460E1  -3.335413935560769E1  -7.367419615496687  -2.423793851487700E1  -9.032985755000007E1  
                        -3.879886683386452E1   1.083566658555967E2  -2.528991289882173E1   5.558541602810708E1  -2.430901688640612E1  -1.406698035967380E2  -5.223017263320291E1  -1.392328534667507E2  
                        -3.340354821420548E1  -9.250580469150103  -2.491412753887052E1  -1.797632213010435E2  -1.132858080625052E1  -2.356524128456519E1  -3.896314459690174E1   1.515680798374520E2  
                        -2.415923097685861E1  -5.413263714603892E1  -5.202452631265980E1  -1.356105391887153E2  -3.893547311658151E1  -1.656164260057567E2  -1.997746695955263E1  -1.324246860121435E2  
                        
 5.374606606606606E10   -1.353402035142091E1  -9.741417430957775E1  -3.934882316137460E1  -1.342913432250533E2  -3.410504453315799E1  -5.381874029012128E1  -2.425021328030424E1   5.969008715531974E1  
                        -3.904181591646348E1  -1.010030543025865E2  -2.533293593376395E1   2.527985289944058E1  -2.413860838067980E1   1.349602326343299E1  -5.205602665766580E1  -1.528262459249667E2  
                        -3.420553681919156E1  -5.806244574194741E1  -2.468111725296119E1  -2.413248227650626E1  -9.651713562926291  -4.929256102366766E1  -3.922320167301425E1  -5.499469527140711E1  
                        -2.441335825044040E1   9.901056463189434E1  -5.240091838570145E1  -1.471802357767099E2  -3.913363060775926E1  -1.268522397020131E1  -2.943490154573048E1  -1.196220005439322E2  
                        
 5.381612612612612E10   -1.361771869696229E1  -1.440358105567760E2  -3.918144866564666E1   1.498976426015130E1  -3.393373960305957E1  -1.013194428409424E2  -2.421770176592889E1  -1.485904785510502E2  
                        -3.924812478436185E1   4.905273475133677E1  -2.321839877700745E1   3.214111890392034E1  -2.457140303623971E1   1.621649923246139E2  -5.218091239658090E1  -1.711051778552459E2  
                        -3.445164981617796E1  -1.057064389844623E2  -2.455830765687655E1   1.242063376444884E2  -1.435926432101006E1  -8.811297835307610E1  -3.924140674232680E1   9.529922125616571E1  
                        -2.451107256756158E1  -1.135579589274248E2  -5.188921789347579E1  -1.661536280436127E2  -3.931987230825985E1   1.322846821948348E2  -2.170247500332356E1   1.790539803429030E2  
                        
 5.388618618618618E10   -1.219346628309677E1   1.742367099051434E2  -3.956237953837032E1   1.635404704566914E2  -3.483867162608566E1  -1.511244158815788E2  -2.436152535451703E1   3.683942149975504  
                        -4.005217233501411E1  -1.609666715012454E2  -2.406344291422959E1   4.122443748940502E1  -2.506320250579164E1  -4.476857896754663E1  -5.258763949693677E1   1.726210402825494E2  
                        -3.486346522348393E1  -1.548598078864377E2  -2.486587792263796E1  -8.336491835696860E1  -1.193175443518889E1  -1.559212394457064E2  -3.958193204106519E1  -1.153212226414360E2  
                        -2.513785826497999E1   3.954968561517565E1  -5.260050523756063E1   1.794857843354692E2  -4.057125759383175E1  -7.441508936295550E1  -1.703029270745698E1  -1.493192774968354E2  
                        
 5.395624624624624E10   -1.130918268733227E1   1.338223041611735E2  -4.010956146359668E1  -4.465335165164267E1  -3.563527246088707E1   1.632067132963836E2  -2.442058608471337E1   1.553564153083679E2  
                        -4.044592986901721E1  -5.432312846031358  -2.497293632977031E1   3.808805001442326E1  -2.503491237881709E1   1.113415454471709E2  -5.368268474720049E1   1.647983831902359E2  
                        -3.548163598058762E1   1.562669030033627E2  -2.492531034849604E1   6.700546208410415E1  -1.106976342131057E1   1.785534211691205E2  -4.016529184572491E1   3.562003584213635E1  
                        -2.488614002738144E1  -1.655182194851142E2  -5.318209170816082E1   1.715881522612013E2  -4.032027324243054E1   7.883656691403925E1  -1.708366757483728E1  -1.161666122325677E2  
                        
 5.402630630630631E10   -1.009367912388077E1   9.855154996422139E1  -4.061788511211277E1   1.060966060655754E2  -3.659170379001387E1   1.162012088452940E2  -2.473600666016818E1  -5.486403760871261E1  
                        -4.048998149346532E1   1.469219894761601E2  -2.448487483652087E1   2.995079849215224E1  -2.524577860795475E1  -9.680858532098178E1  -5.363775425954486E1   1.469350746143232E2  
                        -3.636351324002517E1   1.108826954620866E2  -2.525063881810348E1  -1.406316846115039E2  -1.176218571922047E1   1.197081052492960E2  -4.063794487824401E1  -1.739355936150610E2  
                        -2.459778715433986E1  -1.447909350533508E1  -5.211036979131736E1   1.543021561296454E2  -4.083405463026714E1  -1.318649543193510E2  -2.210458848143328E1  -1.182655257653499E2  
                        
 5.409636636636636E10   -9.318516671533827   6.546913310553300E1  -4.123971855467340E1  -1.004424261327417E2  -3.681544865594110E1   7.037039326330545E1  -2.515262342513797E1   9.927561052129506E1  
                        -4.059822412318291E1  -6.069472239648327E1  -2.480423950708234E1   1.534583048729488E1  -2.527941568922718E1   5.569764649206876E1  -5.303026798092530E1   1.319039563029213E2  
                        -3.635031078642612E1   6.458009000239402E1  -2.540755536891896E1   1.206342697644544E1  -7.971340951951666   8.730663877854806E1  -4.113977627347514E1  -2.608976672823551E1  
                        -2.514220579538219E1   1.387065657913529E2  -5.303244327828008E1   1.334726180215110E2  -4.151410203692010E1   2.525162054292732E1  -2.242018713944573E1  -1.574438017842120E2  
                        
 5.416642642642642E10   -8.701420959549516   3.228147484767872E1  -4.159420239513680E1   5.388383153534640E1  -3.703342403268154E1   2.185873827857891E1  -2.518036667380493E1  -1.086078824870250E2  
                        -4.150753099624600E1   9.264295548861448E1  -2.703784110566017E1   3.650496380140149E1  -2.549116434641632E1  -1.515955288170030E2  -5.488062799741572E1   1.208752997212838E2  
                        -3.689680443706475E1   1.634826692705883E1  -2.559073642996465E1   1.632924256319015E2  -8.867826472338024   6.217608409800167E1  -4.157236869415765E1   1.294056988810289E2  
                        -2.484979852124172E1  -6.714840997101891E1  -5.333442193947411E1   1.174051848781137E2  -4.180610955784931E1   1.751778606694093E2  -1.794026960314293E1  -1.424367204459212E2  
                        
 5.423648648648648E10   -8.864387587284599  -4.219920121333001  -4.206664880849596E1  -1.517090516132554E2  -3.727937889724085E1  -2.482522242574263E1  -2.522536295683146E1   4.364793497686898E1  
                        -4.160970118480445E1  -1.154961790038701E2  -2.651387207276286E1   3.732570359027860E1  -2.527079174879000E1   2.496145121746550  -5.292076326871381E1   1.090428413185977E2  
                        -3.752127843392071E1  -3.040239488731393E1  -2.598960393309175E1  -4.133550211831614E1  -8.487583055795414   9.473403849130893  -4.242445128573629E1  -7.396753155719759E1  
                        -2.474679483988456E1   8.193718825990229E1  -5.336757780990575E1   1.031436307345292E2  -4.205776714551790E1  -3.147790256280366E1  -1.637541115292855E1  -1.158395121762707E2  
                        
 5.430654654654654E10   -9.783960321305438  -4.401320808813755E1  -4.207593325122588E1   2.054219381869314  -3.751329361394317E1  -7.113618050856711E1  -2.526219427266982E1  -1.636525421961351E2  
                        -4.175769298932439E1   3.605852484650257E1  -2.648358538065495E1   1.305362470884202E1  -2.499541521904651E1   1.542090927758289E2  -5.446226999446932E1   9.185140320536711E1  
                        -3.805385548682090E1  -7.657200288551715E1  -2.575925437049845E1   1.126837117638719E2  -6.825386339267872  -1.360917429566705E1  -4.245661112241143E1   8.083559118907974E1  
                        -2.509196874697605E1  -1.292777997428476E2  -5.421018637449791E1   9.141252664481620E1  -4.189424039516315E1   1.226514248648351E2  -1.929862154483942E1  -9.812059020885627E1  
                        
 5.437660660660661E10   -1.074652867202940E1  -9.138377759062588E1  -4.245265908092824E1   1.536855921534609E2  -3.794695063529324E1  -1.192599017748097E2  -2.524000928486079E1  -1.199360393437299E1  
                        -4.236015074930307E1  -1.690168093786742E2  -2.419709503418742E1   2.969166069174857E1  -2.528420692837566E1  -5.604564177848787E1  -5.515949605243448E1   6.774853975223699E1  
                        -3.815848503158944E1  -1.242398249631619E2  -2.578239034631683E1  -9.738861953765724E1  -1.035155049439399E1  -4.888879345246583E1  -4.280867354096964E1  -1.253064841742509E2  
                        -2.522622820638620E1   2.539661215684654E1  -5.441118693579976E1   7.412420132330645E1  -4.225730280788702E1  -8.317849417886521E1  -2.177538623161640E1  -1.274044076512618E2  
                        
 5.444666666666666E10   -1.110456906355399E1  -1.397988514745800E2  -4.249859222778222E1  -5.168948184155035E1  -3.866954092152331E1  -1.678085877029461E2  -2.529407020342443E1   1.418602947374017E2  
                        -4.276215453630359E1  -1.412962152711015E1  -2.618817567447400E1   2.470655986625142E1  -2.558432400924947E1   9.761623955680568E1  -5.452026947907694E1   6.948239918321761E1  
                        -3.864659360403505E1  -1.736869476590532E2  -2.565461946487536E1   5.839019228912895E1  -9.481528030790805  -1.060090822757674E2  -4.294357770576021E1   2.975858878150609E1  
                        -2.527984065161724E1   1.750450806976839E2  -5.513620373554878E1   5.786206823204230E1  -4.281841118936899E1   6.667411289506917E1  -1.659411814770826E1  -1.348283898600261E2  
                        
 5.451672672672672E10   -1.028413133571546E1   1.758608407828976E2  -4.231288263922358E1   1.013851008380027E2  -3.937981311308015E1   1.430650634726349E2  -2.540614792507835E1  -6.746036581222779E1  
                        -4.256681951242774E1   1.405597820199539E2  -2.620768737858461E1   1.094980468420319E1  -2.549139881155484E1  -1.098860399863329E2  -5.443043119166087E1   5.038737698011450E1  
                        -3.942726338373543E1   1.397930618204344E2  -2.496066147877590E1  -1.509171567403467E2  -1.005748245824566E1  -1.334401259513574E2  -4.260542042336947E1  -1.767791036298688E2  
                        -2.548202087194045E1  -3.311060765382255E1  -5.569798455375464E1   4.759230053723393E1  -4.298059045949528E1  -1.393039896499763E2  -1.607875908259253E1  -1.071156342138256E2  
                        
 5.458678678678678E10   -9.101253087129390   1.336942084643547E2  -4.275104432481647E1  -1.050709666990523E2  -3.974770572873552E1   9.725150226860923E1  -2.571327138512056E1   8.318687895034275E1  
                        -4.263372884844993E1  -6.608704862070869E1  -2.471885168763263E1  -1.351663778127557E1  -2.594918942378914E1   4.265340529780888E1  -5.601662024656712E1   3.699159088762162E1  
                        -3.960414958932128E1   9.244658062390373E1  -2.524260528610857E1  -1.518374172269407  -1.249645916648407E1   1.602848497516225E2  -4.318764954287531E1  -2.341512632683180E1  
                        -2.577580189520663E1   1.208878736737716E2  -5.544834941539585E1   2.872608787124294E1  -4.322205025468333E1   1.299319369950192E1  -1.981763775306345E1  -9.350742144826459E1  
                        
 5.465684684684684E10   -8.075221902829917   9.834063058697795E1  -4.282380691207215E1   4.769677631036220E1  -3.998402024254487E1   4.527727028921019E1  -2.587704844999374E1  -1.244686679887172E2  
                        -4.347087755025401E1   9.194656176523056E1  -2.572035324622400E1   3.331687158996424E1  -2.584468191496358E1  -1.656386453140202E2  -5.514420927633139E1   2.437086277896698E1  
                        -4.013546209322893E1   4.215506328028482E1  -2.534517583270300E1   1.507618527561699E2  -8.790100684660523   1.234302987187820E2  -4.332828593375689E1   1.304906792393038E2  
                        -2.605480207746826E1  -8.410550463515912E1  -5.582623382772033E1   1.643929059886077E1  -4.338210769105409E1   1.706866932773307E2  -2.295222760292322E1  -1.339907654168979E2  
                        
 5.472690690690690E10   -8.159952666684282   6.505955208093960E1  -4.302287777380200E1  -1.577210393000825E2  -4.139972245968455E1  -1.408171930199411  -2.562010372022406E1   2.704735870519144E1  
                        -4.290640473311051E1  -1.147175120862431E2  -2.746244223917877E1  -3.372527612107402  -2.542993580077407E1  -1.119842407368973E1  -5.562105275242192E1   3.485879442929864  
                        -4.133336949278220E1  -1.757906593074221  -2.550379912220574E1  -5.907709851267344E1  -9.800670134639873   9.194383486962124E1  -4.328703769221441E1  -7.597000137689584E1  
                        -2.572093860613801E1   6.757883291206937E1  -5.493202237926430E1  -3.317240275013258  -4.305364269356819E1  -3.649466481747348E1  -1.990409679841557E1  -1.188487201401514E2  
                        
 5.479696696696697E10   -8.004336132523267   2.771443804856785E1  -4.320120944973184E1  -2.185594305973974  -4.135727746818649E1  -4.149206830385971E1  -2.559065622860280E1   1.795180803871831E2  
                        -4.306675991737884E1   4.309809199878590E1  -2.535806349947232E1  -7.345223075739604  -2.508219304907960E1   1.437888740713991E2  -5.528455152072809E1  -1.349386789041230E1  
                        -4.148904504240210E1  -4.814916427606561E1  -2.583953514895716E1   9.606702125708576E1  -7.967369312342207   4.514561651666998E1  -4.351382875117810E1   7.820385305683240E1  
                        -2.563404096304926E1  -1.401725123548305E2  -5.528522468208139E1  -1.504871695511418E1  -4.284800743772818E1   1.223529539890272E2  -2.081443876626991E1  -9.921017300916060E1  
                        
 5.486702702702702E10   -8.175117746866565  -8.076821191281514  -4.295161347543598E1   1.510798515329971E2  -4.132279284060309E1  -9.486550984345955E1  -2.578513693870474E1  -2.621796383433138E1  
                        -4.276886826303181E1  -1.662746016472529E2  -2.844147786587027E1  -3.159860761094531  -2.523318387462098E1  -6.615014889405431E1  -5.695948931088276E1  -2.538057092061638E1  
                        -4.174370958240085E1  -9.359190641597273E1  -2.567455719713096E1  -1.102832715984984E2  -7.079974721395338   2.214512606208555E1  -4.326435368300817E1  -1.252642132245555E2  
                        -2.570593821866120E1   1.301291744015813E1  -5.675050276712167E1  -3.389631491907273E1  -4.329529400191892E1  -8.621012184734889E1  -2.041007695911513E1  -9.640487103142226E1  
                        
 5.493708708708708E10   -9.014746509997080  -5.351856212187954E1  -4.224661213258398E1  -5.263811711141695E1  -4.270983818932895E1  -1.417308430051738E2  -2.538417604580643E1   1.276343470425847E2  
                        -4.191521173539962E1  -1.048062833183723E1  -2.869328349379796E1  -3.695222606895438E1  -2.502779301974924E1   8.423815930967201E1  -5.499248344321657E1  -5.031286237583423E1  
                        -4.238677375049610E1  -1.437939307446063E2  -2.561680355161479E1   4.265823017257084E1  -9.352659807334630  -2.012648411600172E1  -4.293155822479707E1   2.975055891764226E1  
                        -2.547115999515836E1   1.658066039627857E2  -5.562860484790625E1  -3.505065541462810E1  -4.282283816950881E1   6.809785494913618E1  -2.519453815253121E1  -7.927434358832792E1  
                        
 5.500714714714714E10   -9.264771360627142  -9.186236140795550E1  -4.220417690373817E1   9.938934254078353E1  -4.205907086127090E1   1.698636347935419E2  -2.571353764925774E1  -8.310443799849367E1  
                        -4.148775986219187E1   1.387151952625412E2  -2.869821512273101E1  -3.078964714095583E1  -2.486630740563273E1  -1.239362528386514E2  -5.695398233668302E1  -5.786136331013531E1  
                        -4.257585731328528E1   1.737696484105506E2  -2.560143873524143E1  -1.622649579992014E2  -8.510081506352346  -6.106920572903327E1  -4.259535289848868E1  -1.788610833298895E2  
                        -2.534956284688501E1  -4.163052229430161E1  -5.661136970906397E1  -6.638252015104651E1  -4.203163311586440E1  -1.361128965446064E2  -2.995074270659893E1  -7.215773881738430E1  
                        
 5.507720720720720E10   -9.867107361810740  -1.377343351611107E2  -4.121229299482925E1  -1.062605146648162E2  -4.212593557319456E1   1.163448181357596E2  -2.541171005273586E1   7.036475078706826E1  
                        -4.164786821100257E1  -6.581444275888188E1  -3.104735899381602E1  -1.410441910705991E1  -2.496479816806662E1   2.565165398196002E1  -5.698153978099127E1  -7.253693767271190E1  
                        -4.284919981693238E1   1.192844639425127E2  -2.498756021938546E1  -1.186262476993566E1  -9.868598718459706  -8.826904977266875E1  -4.204407057846787E1  -2.399325775109956E1  
                        -2.563197278509438E1   1.108421487003292E2  -5.719916896675805E1  -8.296708085231252E1  -4.186038877574795E1   1.449063455193970E1  -2.755408400479155E1  -9.257563856899775E1  
                        
 5.514726726726727E10   -9.831573317999974  -1.792564291707045E2  -4.112868601069364E1   4.187651486613596E1  -4.283322398416087E1   6.338582401068181E1  -2.548998888071280E1  -1.421474670240276E2  
                        -4.146556457975236E1   8.809010490662553E1  -3.065410518526605E1  -3.249629860838795E1  -2.464042939920304E1   1.777177680817443E2  -5.779078993451664E1  -8.580643628645883E1  
                        -4.368574487388383E1   6.840103126170317E1  -2.481219151597534E1   1.402567832392546E2  -1.236812454351471E1  -1.426048150475737E2  -4.184993557878405E1   1.285784277569403E2  
                        -2.539082001812697E1  -9.760417728891056E1  -5.794115949708297E1  -8.855734491576800E1  -4.212357190595386E1   1.697018045095654E2  -2.548612561938171E1  -5.809831072844355E1  
                        
 5.521732732732732E10   -9.606539541964549   1.388369966860699E2  -4.079392519167308E1  -1.656528056774846E2  -4.383542295932423E1   1.594495519802253E1  -2.504077958834385E1   1.065015058777039E1  
                        -4.108138962213555E1  -1.206903739906264E2  -3.516904782010888E1  -3.875300397481951E1  -2.495092290505228E1  -2.830987909395316E1  -5.820758246527783E1  -9.982169204298185E1  
                        -4.353381690740911E1   1.571736298197777E1  -2.446229055973599E1  -6.892838013318949E1  -1.109432556820154E1   1.710176013891416E2  -4.084614539337611E1  -8.104566067817783E1  
                        -2.535124614147531E1   5.422271597915160E1  -5.721787560820958E1  -1.173852005799604E2  -4.108909388436312E1  -3.693721300801885E1  -2.550718198567809E1  -2.752296845292250  
                        
 5.528738738738738E10   -9.230148755783288   1.020259138301818E2  -4.061788064748649E1  -1.086902426211210E1  -4.438569990671723E1  -3.306449798061546E1  -2.530172396498184E1   1.596836539507862E2  
                        -4.110899230376312E1   3.289020127204958E1  -3.322463629997447E1  -3.237263644848137E1  -2.506994458302532E1   1.233964178207706E2  -5.814685223530938E1  -1.314987196104627E2  
                        -4.444415477887183E1  -3.079542144748911E1  -2.485796715074930E1   7.990767359829616E1  -1.291887412401317E1   1.365931227985085E2  -4.095830902576532E1   6.800646012614784E1  
                        -2.551139637613806E1  -1.510799933318484E2  -5.987841253870150E1  -1.223310234445348E2  -4.185439813080601E1   1.142412410552720E2  -2.415761143910371E1   3.504346485154758E1  
                        
 5.535744744744744E10   -8.510310228995234   6.338709523876294E1  -4.053372758297575E1   1.428029801232341E2  -4.416918397088484E1  -8.145223156800526E1  -2.552594209740995E1  -4.540049428693590E1  
                        -4.068022435543254E1  -1.747509887434177E2  -2.736612538990262E1  -4.883916579149855E1  -2.475037935826259E1  -8.422463746712502E1  -5.938689881963775E1  -1.407427518834094E2  
                        -4.353676184653426E1  -7.908646029762532E1  -2.477783221606309E1  -1.284917050293590E2  -1.049404479495418E1   7.922039836485109E1  -4.123233113674574E1  -1.413780022822006E2  
                        -2.506106316385709E1   3.170173556863094E-2  -5.829170375262504E1  -1.439087352424016E2  -4.108938502489251E1  -9.400734884997824E1  -2.540742992917420E1   5.269044740846950E1  
                        
 5.542750750750750E10   -8.572588925882235   2.642151037315137E1  -4.075056058801076E1  -6.689549934437900E1  -4.357199280323481E1  -1.389951538065414E2  -2.562857609779991E1   1.089540337091989E2  
                        -4.012707001683945E1  -2.564657580861744E1  -2.998934038317023E1  -6.410340151766823E1  -2.445113994186457E1   6.569046886752801E1  -5.611005933449379E1  -1.669155553347653E2  
                        -4.387865017414828E1  -1.416564494109032E2  -2.457198966512450E1   2.221481400691508E1  -9.350709460869743   5.431729705721819E1  -4.075267651210179E1   1.335045199989851E1  
                        -2.520847932744544E1   1.527996156408618E2  -5.831563643331491E1  -1.659906637929866E2  -4.069491875142774E1   5.805478813242362E1  -2.724424478047167E1   1.099286985187078E1  
                        
 5.549756756756757E10   -8.787305031253986  -9.704216432283531  -3.980157231165076E1   8.255360292891363E1  -4.397723371009215E1   1.660100352621989E2  -2.568450782238532E1  -1.001454526875486E2  
                        -3.974888932608359E1   1.243426407397280E2  -3.422890547706897E1  -1.486203015446931  -2.456079777353292E1  -1.423371281373874E2  -5.614414694582878E1   1.758266519164092E2  
                        -4.494596584280545E1   1.697542973797811E2  -2.517536511087181E1   1.718007648746503E2  -1.078034891756684E1   2.097486321139126E1  -4.050905709259863E1   1.639281317307341E2  
                        -2.498355310196107E1  -5.688193153502246E1  -5.792108559201858E1  -1.794404182641555E2  -3.961614732950771E1  -1.527210653986248E2  -2.074265566201910E1   2.030437192461590E1  
                        
 5.556762762762763E10   -9.467421927869568  -4.821663701844445E1  -3.965266959749835E1  -1.258923348912456E2  -4.415350057868901E1   1.157607291980231E2  -2.531217070382390E1   5.209792861414201E1  
                        -3.937073841346698E1  -8.389414149282976E1  -3.666112989217383E1  -8.159141569394059E1  -2.416884006305820E1   1.112748837229178E1  -5.600396781683506E1   1.576373720147325E2  
                        -4.401071731930741E1   1.168871646950012E2  -2.494091247777850E1  -3.451794785770995E1  -8.732641507690804  -1.801915508171446E1  -4.071254554322382E1  -4.317219236734199E1  
                        -2.507278405122658E1   9.520997034497746E1  -5.873169755858865E1   1.566767551225277E2  -3.976495383444554E1  -2.185981710016140E-1  -1.837245313495269E1   4.026138952400858E1  
                        
 5.563768768768768E10   -1.063780244373059E1  -8.588556924820256E1  -3.929657848725920E1   2.707964149304186E1  -4.344936510645943E1   6.141997662096026E1  -2.532363921034372E1  -1.562066164128570E2  
                        -3.929087504285463E1   6.595520077155412E1  -5.140084355832526E1  -5.057819892175130E1  -2.424751407265081E1   1.581501707687682E2  -5.767256769360150E1   1.305210855500848E2  
                        -4.432972782385872E1   5.943093804575202E1  -2.474781491907624E1   1.186079655616042E2  -9.899039571752429  -3.819037058786446E1  -4.024563482307651E1   1.071111729605091E2  
                        -2.481931659048625E1  -1.133833554604336E2  -5.813264707111020E1   1.379287806270619E2  -3.865433782838608E1   1.521545968559524E2  -2.042101352623984E1   5.591937938865161E1  
                        
 5.570774774774774E10   -1.172146548554310E1  -1.297810470526544E2  -3.889720665511249E1   1.768029374643056E2  -4.414129162078331E1   9.136448691176206  -2.493042384199517E1  -4.285180570853790  
                        -3.918754723127987E1  -1.467020334763217E2  -4.628931554249365E1  -6.210713788822905E1  -2.423925891869169E1  -5.088153814828850E1  -5.844390490796783E1   1.227924235228611E2  
                        -4.419256426127796E1   7.136607848812608  -2.451074315727803E1  -8.983744874334573E1  -1.257408942948016E1  -8.755969208803748E1  -3.966061183136856E1  -1.022454130747501E2  
                        -2.501674199283191E1   3.507178462273526E1  -5.817305550469230E1   1.061174166610763E2  -3.968926749033830E1  -5.854059007249883E1  -2.776689917148698E1   2.508050707001483E1  
                        
 5.577780780780780E10   -1.129113559331253E1  -1.723039493686989E2  -3.904599221760312E1  -3.388188225641189E1  -4.379677423498099E1  -4.381676210527752E1  -2.468648462029355E1   1.473746310348977E2  
                        -3.909693525527960E1   5.726354587914054  -4.102138707949899E1   9.969384169175693E1  -2.433391005460235E1   9.879964007060701E1  -5.909580220602192E1   7.824256152416174E1  
                        -4.388919047002531E1  -4.480222968810492E1  -2.459985036440709E1   5.950254611297329E1  -1.090175255244837E1  -1.207712055353051E2  -3.915473531932527E1   4.882270384014147E1  
                        -2.484223784833722E1  -1.730523876004066E2  -5.996270897104484E1   9.296503559270911E1  -3.950190368774227E1   9.155299221551907E1  -2.030606405433607E1   1.511675959077667E1  
                        
 5.584786786786787E10   -1.163114315583019E1   1.468978729242654E2  -3.884692319024370E1   1.160883078121148E2  -4.252109209334530E1  -1.004700370213666E2  -2.455200238386837E1  -6.109485312454167E1  
                        -3.923244448308984E1   1.579738361709897E2  -3.573828381149558E1   2.963003454401088E1  -2.409462916236059E1  -1.080843353558551E2  -5.978616705441480E1   7.208350248985374E1  
                        -4.243509723871489E1  -1.014187534772897E2  -2.408418274862839E1  -1.499249726822244E2  -1.438048790426841E1  -1.486410017807544E2  -3.921574154689575E1  -1.603545897807552E2  
                        -2.476851897793062E1  -2.189553327020868E1  -5.936625193593223E1   7.488416130707563E1  -3.888193915855852E1  -1.199225422407174E2  -1.608533579363499E1   5.654201248485757E1  
                        
 5.591792792792793E10   -1.125540768821739E1   1.111359543290806E2  -3.858379021760519E1  -9.458952724330771E1  -4.242649880848842E1  -1.536106971851147E2  -2.440525352017453E1   8.930401767086545E1  
                        -3.864226217721471E1  -5.172179648429407E1  -3.265857584013105E1   8.228823438148794E1  -2.427469431207291E1   4.519318145810318E1  -5.823854843258508E1   5.557791963952882E1  
                        -4.279146268040486E1  -1.549721922636335E2  -2.429743880437977E1  -4.709473645199443E-1  -1.440275497734730E1   1.424751060522259E2  -3.899774466372288E1  -1.135146871570116E1  
                        -2.480869865819572E1   1.279674906577342E2  -6.088239798340799E1   4.601658631562615E1  -3.900465308695915E1   3.289854795789822E1  -1.762961096724244E1   8.036519958200346E1  
                        
 5.598798798798798E10   -1.143984581912240E1   7.389551889637882E1  -3.904832692377958E1   5.410377133545752E1  -4.197915623540980E1   1.549261294971851E2  -2.445630985672874E1  -1.208794798503998E2  
                        -3.882480406351172E1   9.998279309855744E1  -3.661331397758667E1   8.348371734503716E1  -2.436786542016687E1  -1.618630164546082E2  -6.184580549381976E1   2.288857660316375E1  
                        -4.144346853688661E1   1.543246154390384E2  -2.416540987015968E1   1.493175783233498E2  -1.334671145863014E1   1.176738790190511E2  -3.901538535313767E1   1.371471883137010E2  
                        -2.491477770132118E1  -7.902681101815206E1  -6.073931335869285E1   4.155938870790563E1  -3.948280096767668E1  -1.771783479402559E2  -2.376267735330381E1   7.677294490483200E1  
                        
 5.605804804804804E10   -1.079529707593601E1   3.466639989401601E1  -3.925004881108369E1  -1.536373525373177E2  -4.103294880745354E1   1.027611946500842E2  -2.479809618793634E1   2.912606414268482E1  
                        -3.869291190020179E1  -1.134572717649160E2  -4.477358979302705E1  -3.808352306384809E1  -2.429320007119820E1  -1.065930055264030E1  -6.051925052844531E1   1.837227605270692E1  
                        -4.099375609392215E1   9.596585367803969E1  -2.473343985251418E1  -6.047887007576215E1  -1.369332449144530E1   7.399559711647393E1  -3.918330497548684E1  -7.425090837502758E1  
                        -2.436607779032111E1   7.121969760024906E1  -5.849550876068419E1   1.747729093576637E1  -3.825458880237582E1  -2.552326700527308E1  -2.081131558631091E1   3.188497266924571E1  
                        
 5.612810810810810E10   -1.069815373019353E1   2.430132798060134  -3.893653354516918E1  -3.382465146812971  -4.124689404502705E1   4.838269222804953E1  -2.499765373560812E1  -1.792544947101621E2  
                        -3.893227817872744E1   3.938640682009879E1  -3.439826417165394E1   4.041350324590842E1  -2.487847565260361E1   1.417670926387703E2  -5.732082188213625E1   4.359660300342376  
                        -4.137087406203474E1   4.216376679224586E1  -2.468182892613292E1   9.307884236636204E1  -1.053617048809027E1   3.078496068622793E1  -3.920571726217479E1   7.427489478317413E1  
                        -2.475374895956102E1  -1.388087631049465E2  -5.828756467955314E1  -3.164968702840337  -3.944443271517965E1   1.217503281233688E2  -1.642492860988720E1   6.133136137093842E1  
                        
 5.619816816816817E10   -1.087950543360738E1  -3.585192180036776E1  -3.912568387764560E1   1.468585332102974E2  -4.101237494349437E1  -1.523854379827755  -2.486445501842469E1  -3.025567835896174E1  
                        -3.851649694888302E1  -1.702137797682111E2  -6.595887806144610E1  -5.030910666453497E1  -2.422801750473926E1  -6.898736597336787E1  -5.898175199948222E1  -1.360281972750645E1  
                        -4.056396250909191E1  -7.055578325252786  -2.495431378283374E1  -1.182483975763404E2  -1.009160973059468E1   9.940232312057074  -3.916620351361899E1  -1.362830783630499E2  
                        -2.471713210829590E1   1.625016909899125E1  -5.748801246595669E1  -2.249638635814309E1  -3.917105700046795E1  -8.478630321511976E1  -1.734564084601100E1   9.567898057056765E1  
                        
 5.626822822822823E10   -1.067006062773508E1  -7.392562433066179E1  -3.958748388295049E1  -6.297103191811341E1  -4.022290762896288E1  -5.206396780059646E1  -2.565524055374739E1   1.245127124606338E2  
                        -3.911257742174908E1  -2.087585851986028E1  -3.821182793980827E1   8.436692674361524E1  -2.449664961633615E1   7.942930433733589E1  -5.685737857236902E1  -4.441434978824209E1  
                        -4.030508409122683E1  -5.864745325650259E1  -2.526091193039658E1   3.344329411008186E1  -1.165823046595819E1  -3.399398505017820E1  -4.005542843374074E1   1.914370283770332E1  
                        -2.486966271455773E1   1.648522062392850E2  -5.839016585746356E1  -4.676911928586367E1  -3.889698516733111E1   6.282468999731822E1  -2.143377248404563E1   1.031477537864192E2  
                        
 5.633828828828828E10   -1.132694775527308E1  -1.055600221718274E2  -3.934356333970687E1   9.034047537915821E1  -3.961401885149571E1  -1.047376264658174E2  -2.483553576174937E1  -8.214356446141912E1  
                        -3.960698769170372E1   1.303080103952302E2  -3.688532531633726E1   4.284437992208118E1  -2.477240965404915E1  -1.233571238157250E2  -6.185353605392285E1  -5.812383052801177E1  
                        -4.025287819082384E1  -1.072144661290883E2  -2.516447547996792E1  -1.723322771487121E2  -9.632345615628559  -6.629556316133223E1  -3.992906893894274E1   1.692574075415485E2  
                        -2.510296850484137E1  -4.467821940960129E1  -5.753364575198121E1  -6.779459571283302E1  -3.931187848109524E1  -1.467125006990449E2  -2.095319899299975E1   6.282743379399427E1  
                        
 5.640834834834834E10   -1.204010727842409E1  -1.452870444735425E2  -3.935791885553662E1  -1.203651393852362E2  -3.958252463302144E1  -1.498106765212995E2  -2.541244835861582E1   6.670071478389298E1  
                        -3.903251037122018E1  -7.585510863226693E1  -3.981539977545359E1   7.679415895311533E1  -2.472971318168610E1   2.847721099274707E1  -5.756041883530516E1  -9.027562735296652E1  
                        -3.985444676653339E1  -1.558495846940800E2  -2.509862821381028E1  -2.181961817101629E1  -1.156210265816270E1  -9.759874120096005E1  -4.079790653947627E1  -3.913973415569714E1  
                        -2.518621076343722E1   1.090873708200369E2  -5.751779761492585E1  -9.480173781521394E1  -3.945083820027414E1   8.945397205127016  -1.614696654398215E1   7.407310121858369E1  
                        
 5.647840840840840E10   -1.229283025837017E1   1.751967459663437E2  -3.970009856849566E1   3.121258369867376E1  -3.917119036848250E1   1.599477416569543E2  -2.533940014205201E1  -1.375829097346852E2  
                        -3.986302457581084E1   7.535487103795113E1  -3.621735975781520E1   2.866652311301855E1  -2.461710640434206E1   1.746975811723881E2  -5.663068560664297E1  -1.014135248413304E2  
                        -3.925304775691248E1   1.560616196717701E2  -2.476678714928933E1   1.309677154316961E2  -1.225348664843768E1  -1.468599155628845E2  -3.994014236354889E1   1.184268567444346E2  
                        -2.518481099265098E1  -9.992117875837005E1  -5.990913138526956E1  -1.116556408891423E2  -3.973808236554197E1   1.587744721042759E2  -1.655446420063308E1   9.920572734774100E1  
                        
 5.654846846846846E10   -1.222793474114008E1   1.348367548598922E2  -3.918678569655599E1  -1.765190806160687E2  -3.836455479863921E1   1.087230493288307E2  -2.502732407178140E1   1.359828552985951E1  
                        -3.988640034636490E1  -1.301252067703878E2  -3.701693290012354E1   7.399135499412337E1  -2.498092006112740E1  -3.127579652842388E1  -5.887796418602118E1  -1.278337290952868E2  
                        -3.899210724093911E1   1.072771438843014E2  -2.473570181566384E1  -7.925074782946193E1  -1.155470347140612E1  -1.793697251860465E2  -3.993381790794043E1  -9.471513009309112E1  
                        -2.519675897169323E1   5.089187188169104E1  -5.826140478298664E1  -1.269025142825560E2  -3.975175249775701E1  -5.133965763277422E1  -2.035926453362003E1   1.227571659940449E2  
                        
 5.661852852852853E10   -1.211706483491850E1   9.351033404532967E1  -3.949283295571097E1  -2.530240122537548E1  -3.824795610009713E1   5.434309207819104E1  -2.524224029524394E1   1.637541772532118E2  
                        -3.938945022188456E1   2.367527553177157E1  -3.464065177065207E1   1.931573675693726E1  -2.498629716097272E1   1.234036871546110E2  -5.909805182462122E1  -1.422573181033240E2  
                        -3.835321924595777E1   5.441964377191630E1  -2.487886326018483E1   7.208085330776515E1  -1.517541448692906E1   1.372317978646866E2  -4.029086169585742E1   5.742216229671684E1  
                        -2.533864052025727E1  -1.552498605540485E2  -5.864941866508960E1  -1.508461648697470E2  -4.000319561157617E1   1.025445991559632E2  -2.195949501132240E1   9.787063082340258E1  
                        
 5.668858858858859E10   -1.193344454721206E1   5.372821101743279E1  -3.918465293696355E1   1.246474155772228E2  -3.799576154733826E1   8.967172969095840  -2.516889885871787E1  -4.491671949555649E1  
                        -3.943597075076381E1   1.715263802842295E2  -2.800391491276424E1   2.018490532861531E1  -2.471497684609930E1  -8.883174217777417E1  -5.787690252289031E1  -1.586166027364554E2  
                        -3.802089402568337E1   5.744474765433920  -2.478810092138069E1  -1.385221813130027E2  -1.220191583340260E1   7.960449816500206E1  -3.989691744765449E1  -1.491774464247361E2  
                        -2.514136135553376E1  -3.957765550533459  -5.899696397603621E1  -1.657819656090333E2  -3.982529167540198E1  -1.026243104227653E2  -1.563413106339236E1   9.301062125651299E1  
                        
 5.675864864864864E10   -1.180157131992419E1   1.247041225390901E1  -3.983290300269951E1  -8.415217632547216E1  -3.739326409707833E1  -4.226048926692840E1  -2.484257201595066E1   1.035894622424181E2  
                        -3.981694003346607E1  -3.374550354541356E1  -3.846310906751462E1   2.651285561154917E1  -2.532830974523306E1   6.665823257704648E1  -6.001504872492686E1   1.797701525498021E2  
                        -3.764762509964413E1  -4.430037820161061E1  -2.514350872548444E1   1.242047965407603E1  -1.297462485490591E1   5.362736925934151E1  -3.979516144030457E1   8.198003276911667E-2  
                        -2.520112799293460E1   1.476834157044087E2  -5.918693082864604E1   1.756813939527598E2  -3.999803642462279E1   4.647712670038066E1  -1.451243209531701E1   1.105482123978350E2  
                        
 5.682870870870870E10   -1.240300877790248E1  -2.983913010944680E1  -3.978080358883169E1   6.876338712728639E1  -3.750195377946849E1  -9.109703221507608E1  -2.503490995448514E1  -1.062528559093444E2  
                        -3.954911977960341E1   1.179714843765846E2  -3.439415141837585E1  -2.062279989754592E1  -2.463257134960593E1  -1.444564020891856E2  -5.977110093594505E1   1.696252317142707E2  
                        -3.716793376262240E1  -9.775686571788773E1  -2.522742982396820E1   1.645220835595120E2  -1.236754624875582E1  -5.696148481165235  -4.008457192138953E1   1.500302321747077E2  
                        -2.499548842699405E1  -5.828888867697930E1  -5.710884399064549E1   1.628167800957627E2  -3.991000551580608E1  -1.633952821528804E2  -1.691574228410925E1   1.253395578172539E2  
                        
 5.689876876876876E10   -1.148836052405403E1  -6.942879415407100E1  -3.967612345981039E1  -1.387657050172692E2  -3.747479107078224E1  -1.433924258142153E2  -2.522767465027858E1   4.481356425717686E1  
                        -3.956125361157555E1  -9.249760029482802E1  -2.887154222085401E1   2.669342096401943  -2.440875080113155E1   9.258012422219197  -5.828243210756440E1   1.515801040871548E2  
                        -3.792671685661122E1  -1.467384368453477E2  -2.495386036978382E1  -4.281239738457288E1  -9.929291710702321  -3.332123390530193E1  -3.985875321875864E1  -5.671755205853921E1  
                        -2.524784394191521E1   9.052053108879795E1  -5.785566158898155E1   1.370374969124366E2  -3.988426003006356E1  -8.682201523354916  -1.928593965905936E1   1.066450174561979E2  
                        
 5.696882882882883E10   -1.188466492175387E1  -1.149266144026802E2  -4.008004757768103E1   1.504185755554830E1  -3.737414594906969E1   1.739410884957454E2  -2.566394351212166E1  -1.632012077557757E2  
                        -3.968471455992427E1   5.821969355798372E1  -2.736588320549509E1   1.346350591566858E1  -2.476964448255649E1   1.553437299443027E2  -5.994172591793971E1   1.300287282869027E2  
                        -3.744234199956827E1   1.687956273261789E2  -2.531933569460107E1   1.078694521062315E2  -1.082673815483434E1  -6.229871556455156E1  -4.062430186281792E1   9.314721148797709E1  
                        -2.528996222312550E1  -1.151765661256763E2  -5.599557119155298E1   1.266936085151919E2  -4.014158193588433E1   1.441112606600308E2  -1.679249208736047E1   9.923407737205966E1  
                        
 5.703888888888889E10   -1.122753532495542E1  -1.555575530988913E2  -3.966539373652488E1   1.685709533917502E2  -3.649246980213935E1   1.200966054882624E2  -2.524305611652727E1  -8.650800458814199  
                        -3.965234939784332E1  -1.455882352712799E2  -3.104607287237232E1  -1.719561725933579E1  -2.482349458854454E1  -4.894716729414770E1  -5.648032147605123E1   1.144354524613485E2  
                        -3.711936722137484E1   1.192005788087746E2  -2.544683091813525E1  -9.645115048494684E1  -1.071224501141168E1  -1.095296608615006E2  -4.049175034103218E1  -1.124347526505232E2  
                        -2.555614805973350E1   3.617690554780919E1  -5.739798119125003E1   1.006423179272326E2  -4.051766051705977E1  -6.265607089671816E1  -1.690028443988394E1   1.152857458728727E2  
                        
 5.710894894894894E10   -1.165059204404348E1   1.750377274847495E2  -3.930416275813718E1  -4.089306743941509E1  -3.750981743188065E1   7.189974657375572E1  -2.607569724426646E1   1.410846238232132E2  
                        -3.890063487607952E1   4.685035352964020  -2.582746298778573E1  -2.072013623849108E1  -2.467024881602696E1   9.985283125126779E1  -5.789279119328167E1   1.001347576168010E2  
                        -3.762942165002241E1   6.766215217757895E1  -2.511072723501189E1   5.621763443604916E1  -1.104791364875086E1  -1.324297524279970E2  -4.020671071501180E1   3.857040918107557E1  
                        -2.565123176114781E1  -1.712794101890771E2  -5.746492683583495E1   9.100706242568938E1  -3.936186145986319E1   8.770249014678016E1  -1.818430341037099E1   1.253777209698340E2  
                        
 5.717900900900900E10   -1.173313474925932E1   1.382911401045467E2  -3.908044894554998E1   1.098003566173036E2  -3.725196481128152E1   2.507296845435563E1  -2.544274209160918E1  -6.514515616673144E1  
                        -3.919339980121152E1   1.565300549293731E2  -2.592792408170258E1  -5.846074858401465  -2.509984260363773E1  -1.093332949376032E2  -5.683089905943777E1   7.671304228181832E1  
                        -3.726191425116524E1   2.521850782769565E1  -2.491652881547042E1  -1.553098589979318E2  -1.369296370182986E1  -1.754990883433191E2  -4.021091788452837E1  -1.682392411234596E2  
                        -2.562601053408475E1  -1.890213606315105E1  -5.803292835184568E1   6.320806779838051E1  -3.997850685509722E1  -1.223282587368414E2  -1.789147038608537E1   1.318428412593725E2  
                        
 5.724906906906906E10   -1.307650721128288E1   1.006400773165553E2  -3.894270699509585E1  -9.750420898646755E1  -3.685439830253555E1  -2.253737412420145E1  -2.546067207079781E1   8.456455200254196E1  
                        -3.893735223143086E1  -4.972138020421252E1  -2.979100199861171E1  -2.620282455791604E1  -2.539036571461610E1   4.636686893005345E1  -5.791319956617758E1   4.889838848679521E1  
                        -3.681269414218106E1  -2.084497410621868E1  -2.497946942196811E1  -2.050678761812991  -1.424145929187930E1   1.461782322259238E2  -3.973853282369073E1  -1.752916339878151E1  
                        -2.566928846240300E1   1.333942640374156E2  -5.794362270148077E1   5.083139378052358E1  -3.982555684376661E1   3.497240756870983E1  -1.871561253029863E1   1.186023357017770E2  
                        
 5.731912912912913E10   -1.444764062800911E1   6.026037463806889E1  -3.872268375612430E1   5.280607060864482E1  -3.623802621336597E1  -7.336606194832773E1  -2.533978319710744E1  -1.221127603065816E2  
                        -3.875763564156156E1   9.735162291034882E1  -2.776657880278076E1  -4.476668161957758E1  -2.464090645346452E1  -1.639062364970938E2  -5.605396514503865E1   3.914394738444073E1  
                        -3.628988516870543E1  -7.526587555343950E1  -2.480904547373588E1   1.490871366085884E2  -1.778134259678729E1   1.171191889984014E2  -3.959816312365525E1   1.346144271334542E2  
                        -2.543258170863439E1  -7.656124772563277E1  -5.720454531615525E1   3.177604997106271E1  -3.930796368556889E1  -1.782306994168116E2  -1.824853176786122E1   1.259545873380645E2  
                        
 5.738918918918919E10   -1.538355531343559E1   1.028182454515911E1  -3.849168294031698E1  -1.568826617045157E2  -3.695291926178160E1  -1.205677461656137E2  -2.530585135520751E1   2.986580880771681E1  
                        -3.848522353105902E1  -1.110314557561606E2  -2.580296214796074E1  -3.549323420655067E1  -2.485935753866860E1  -1.600727638566358E1  -5.802504721846356E1   1.848479389448245E1  
                        -3.697450622678014E1  -1.230784268782118E2  -2.513081079140697E1  -6.130275075614204E1  -1.826307507822359E1   3.727305317987614E1  -3.950623810183492E1  -7.398637689026161E1  
                        -2.523923947225935E1   7.446891762980772E1  -5.657592886525946E1   2.012843650616197E1  -3.931444058250306E1  -2.675048739913734E1  -1.820450687928661E1   1.196469783674706E2  
                        
 5.745924924924925E10   -1.566672153546651E1  -3.900792562935292E1  -3.871348164125384E1  -4.628473914279930  -3.614554490957519E1  -1.699805309491057E2  -2.516184117826982E1  -1.763579520180464E2  
                        -3.847562101266425E1   3.796805587049629E1  -2.548994710122097E1  -3.773609368256627E1  -2.488217803309879E1   1.379797338922360E2  -5.595641263958175E1  -8.603375546314945  
                        -3.635835555185395E1  -1.718562412677412E2  -2.506101170680630E1   8.964973495476201E1  -1.513402418961262E1   5.632478296166812  -3.948062975878406E1   7.814249476939689E1  
                        -2.526691961815182E1  -1.337070884055414E2  -5.736723104130867E1   6.750494412805979E-1  -3.960357013634140E1   1.253673123125021E2  -1.974044628744801E1   1.388311774472469E2  
                        
 5.752930930930930E10   -1.432702141643446E1  -8.337803482126589E1  -3.822371865022607E1   1.483155678067245E2  -3.602361223270811E1   1.336201523256424E2  -2.498861854397088E1  -2.498494890686598E1  
                        -3.845179826752313E1  -1.730403840565360E2  -3.002117510003206E1  -3.266407897648105E1  -2.449588851571490E1  -7.445412912246013E1  -5.699780646601074E1  -2.830144224443752E1  
                        -3.606982262541069E1   1.343832512219751E2  -2.527491598084581E1  -1.173212895788977E2  -1.619141708000896E1  -4.685878783710362E1  -3.931662303297755E1  -1.316249105049480E2  
                        -2.484671595333814E1   1.515845477206029E1  -5.788105277683974E1  -1.453132458143263E1  -3.930109668229400E1  -8.928298240984142E1  -2.150340497118114E1   1.261920047441740E2  
                        
 5.759936936936936E10   -1.496511715437258E1  -1.253132264512114E2  -3.841082241681050E1  -6.333502576119469E1  -3.681174482307588E1   8.399930925098128E1  -2.519382597836242E1   1.245837195609069E2  
                        -3.841834237075558E1  -2.198502873492012E1  -2.905135895976662E1  -4.438441626814628E1  -2.545281813199459E1   7.896043622732586E1  -5.654623815986081E1  -3.593726707821651E1  
                        -3.707572984168676E1   8.226754224178259E1  -2.548527519006890E1   3.400866542755342E1  -1.266241420956488E1  -9.458757257609163E1  -3.944963445044555E1   2.053591641145174E1  
                        -2.525065748425727E1   1.670598173103298E2  -5.720220934086031E1  -3.572005417731607E1  -3.939720635317447E1   6.277771109703000E1  -2.057873069023674E1   1.197126224800140E2  
                        
 5.766942942942943E10   -1.331859771682755E1  -1.558916522313416E2  -3.843864302445051E1   8.760896314138610E1  -3.717922760698662E1   4.054283605651295E1  -2.506434016122008E1  -8.443035988326720E1  
                        -3.837869552931583E1   1.272196033034885E2  -2.496429290435465E1  -7.095989733969047E1  -2.412519659123791E1  -1.305931249040601E2  -5.618432174884566E1  -6.223507611800534E1  
                        -3.732581592242341E1   3.990076502893964E1  -2.523508080627008E1  -1.738886146073687E2  -1.312076545690586E1  -1.012577061086466E2  -3.950976413637500E1   1.705049092373101E2  
                        -2.537329112429583E1  -4.211548407730598E1  -5.565047392807001E1  -5.266026430004332E1  -3.885777588755637E1  -1.448530267493688E2  -2.178295336869794E1   1.272231851049320E2  
                        
 5.773948948948949E10   -1.405951479914704E1   1.723220811212817E2  -3.861943982932842E1  -1.213368074654287E2  -3.622137676439832E1  -8.591506297710133  -2.512023631136784E1   6.793946017463084E1  
                        -3.865876680783997E1  -8.361474786633326E1  -2.552249228662902E1  -4.920038380706411E1  -2.559964640140500E1   2.164464301948670E1  -5.749558170978517E1  -6.858386244590676E1  
                        -3.681851380837375E1  -9.775014823098680  -2.548648334696909E1  -2.226326055700025E1  -1.462067171664384E1  -1.352734746671784E2  -3.960949658832899E1  -3.942154232035772E1  
                        -2.550886390683193E1   1.100633557028005E2  -5.635523567625074E1  -7.651092512685254E1  -3.917199894549164E1   6.106700098903330  -2.137107381473184E1   1.332770786976111E2  
                        
 5.780954954954955E10   -1.377076598167148E1   1.425556615123957E2  -3.851857606185324E1   2.807088357264667E1  -3.703227089643944E1  -5.942177440577987E1  -2.483894013664709E1  -1.397800635365136E2  
                        -3.867923666665261E1   7.013653659737865E1  -2.744852449106901E1  -7.811711759431684E1  -2.539804281258354E1   1.762569432502203E2  -5.865633141716249E1  -9.747041892728646E1  
                        -3.731166085439850E1  -6.364153647867347E1  -2.534066022080236E1   1.310496566016068E2  -1.308741589216246E1  -1.644792166489593E2  -3.880590749065250E1   1.131672697294519E2  
                        -2.558337694866184E1  -9.695904915135917E1  -5.633999046014244E1  -9.233670401465984E1  -3.958440220492859E1   1.600892532088938E2  -2.887130292544999E1   1.173770610246717E2  
                        
 5.787960960960960E10   -1.528756222572900E1   1.217905644543222E2  -3.815343024553714E1  -1.794558142372309E2  -3.725797045336126E1  -1.072127263464946E2  -2.506170291765403E1   1.096385024253546E1  
                        -3.861412027706537E1  -1.399110519443401E2  -2.467292659047869E1  -7.935669032905253E1  -2.498607369929343E1  -3.522306293368954E1  -5.790310219535807E1  -1.147744621143988E2  
                        -3.805487535073204E1  -1.094539083105466E2  -2.538743407718885E1  -7.861786836511392E1  -1.553205453212963E1  -1.753016222048349E2  -3.901763719571181E1  -9.799255023117460E1  
                        -2.506534823083332E1   5.240074881725859E1  -5.737514312037110E1  -1.200444228765590E2  -3.943593367442851E1  -5.525488216345666E1  -2.667118383526556E1   7.446151400602925E1  
                        
 5.794966966966966E10   -1.683246039471395E1   7.562697568511179E1  -3.870590116305511E1  -3.241544145361377E1  -3.689213053947996E1  -1.524562185010780E2  -2.508599847802993E1   1.619022082223608E2  
                        -3.860458816283361E1   9.414643237251719  -2.256524507544889E1  -7.578635662837537E1  -2.513492838315494E1   1.173425252049334E2  -5.849960200170763E1  -1.237674436436734E2  
                        -3.709134574971316E1  -1.569021863673369E2  -2.537941522125913E1   7.117527488445602E1  -1.995747093630635E1   1.225811377572706E2  -3.976575928879851E1   5.213494490200574E1  
                        -2.545046552264645E1  -1.558109874160027E2  -5.817822163131861E1  -1.259423741402741E2  -3.962497414883899E1   9.649027469443684E1  -2.186184780508506E1   7.927846985216129E1  
                        
 5.801972972972972E10   -1.918939730641249E1   6.048713679792341E1  -3.869010734652839E1   1.182390390701436E2  -3.688724272406409E1   1.511090090560419E2  -2.521771460332960E1  -4.616990681654527E1  
                        -3.858257513961022E1   1.604778519920113E2  -2.618291012619673E1  -7.570618623032014E1  -2.539038800151275E1  -9.211712912057546E1  -5.908063145242686E1  -1.454426671192184E2  
                        -3.681764001857119E1   1.477133535743459E2  -2.548091826080024E1  -1.364376210620066E2  -1.991955011642033E1   1.004385132625668E2  -3.949534921919221E1  -1.556261936560792E2  
                        -2.531516115352658E1  -5.204816531666034  -5.809427443076640E1  -1.450275874201270E2  -3.991949687560211E1  -1.118065408209649E2  -2.598591406280493E1   1.274245829193792E2  
                        
 5.808978978978979E10   -2.876157912481385E1  -1.948828944810447  -3.890768432541274E1  -8.797090967895110E1  -3.791695627165895E1   1.005790933645216E2  -2.510780835215329E1   1.045688575961974E2  
                        -3.874925214444100E1  -4.979137861981121E1  -2.304076953044707E1  -9.022098995433495E1  -2.514614713276385E1   6.185793257810542E1  -5.851369549125629E1  -1.596260174643670E2  
                        -3.815422859227952E1   9.414225014985995E1  -2.528975353510911E1   1.547834601757578E1  -3.633317132810016E1  -1.473544054265928E1  -3.995749900811507E1  -4.554697915350443  
                        -2.500976290940680E1   1.451501306016651E2  -5.824136259101946E1  -1.538951185476589E2  -3.959964321815147E1   4.024403013164012E1  -3.602815984460148E1   2.939271871843299E1  
                        
 5.815984984984985E10   -2.276725881441954E1  -9.990724855703607E1  -3.898644294997983E1   6.097238872081288E1  -3.773402938502633E1   5.685969618339230E1  -2.518641755521058E1  -1.052599646453948E2  
                        -3.880766026952238E1   1.036548681213909E2  -2.218399639611150E1  -9.303747943213151E1  -2.489749804772788E1  -1.489492750987587E2  -5.846377834456848E1  -1.784695250898884E2  
                        -3.814471748301565E1   5.063291609099817E1  -2.556936100741668E1   1.646552209158606E2  -1.804897745117891E1  -4.006110583494667E1  -4.032038257902865E1   1.435087770036675E2  
                        -2.564881455011967E1  -6.497131718229640E1  -5.816078251424889E1  -1.760194867244490E2  -4.005101967524440E1  -1.677646116386222E2  -2.242317647206165E1   3.902779678276198E1  
                        
 5.822990990990990E10   -1.920771216317854E1  -1.413920548146773E2  -3.922960934720331E1  -1.488783792366613E2  -3.749138841070202E1   1.646616841990047  -2.547698272744765E1   4.571998228476911E1  
                        -3.891927445399357E1  -1.071329456388161E2  -2.399518795809929E1  -7.918089607849448E1  -2.526278685370559E1   3.335934364122773  -5.670224393366340E1   1.702119264024080E2  
                        -3.716345474892570E1  -5.600488434625980E-1  -2.563613274863246E1  -4.464297010179069E1  -2.008509008050023E1  -5.828480879928186E1  -4.021111074068837E1  -6.559498067054217E1  
                        -2.544575547008015E1   8.834921340135891E1  -5.833655242921461E1   1.627126397158770E2  -4.011347645771462E1  -1.347246012867308E1  -2.229291914360102E1   6.162653334901064E1  
                        
 5.829996996996996E10   -1.534976454541062E1  -1.677725863164881E2  -3.962082144035193E1   3.874966563136391  -3.820974620712416E1  -5.145814750923857E1  -2.536089010814825E1  -1.632894978451880E2  
                        -3.959862264735766E1   4.467127427182921E1  -2.749394372988725E1  -1.199027279258446E2  -2.534900019834513E1   1.547680876824266E2  -5.533888128941867E1   1.524327063455983E2  
                        -3.814027371908945E1  -5.666891061810741E1  -2.575085003139898E1   1.074978320101679E2  -1.601901835678595E1  -1.224842606168945E2  -4.031565510143611E1   8.627433459658369E1  
                        -2.545994110631967E1  -1.215835993000355E2  -5.772708359140927E1   1.494160785539315E2  -4.003545982848405E1   1.333948028551876E2  -2.632784163213418E1   6.387412324656064E1  
                        
 5.837003003003002E10   -1.406103662687719E1   1.736900576582226E2  -3.944193856316458E1   1.551794381696804E2  -3.917737013270413E1  -9.585470847743814E1  -2.557295109340885E1  -1.025187169666601E1  
                        -3.945417703501836E1  -1.630054843298331E2  -2.504606749347783E1  -1.044229228990741E2  -2.549202498341000E1  -4.887400459819511E1  -5.588384075977466E1   1.266983923176907E2  
                        -3.945604160399908E1  -1.015475232302167E2  -2.568052386456649E1  -1.027775367319346E2  -1.400355322283899E1  -1.286475087587339E2  -4.093701395673990E1  -1.213048072904050E2  
                        -2.593586993372810E1   2.906421367297887E1  -5.686448894889886E1   1.321722550768744E2  -4.030691820523562E1  -7.321452345640103E1  -2.345362422311148E1  -1.099446582196897E1  
                        
 5.844009009009009E10   -1.564006295961657E1   1.487675513947149E2  -3.969722111325135E1  -5.549096477591337E1  -3.867021473589981E1  -1.399892506441412E2  -2.597188715606569E1   1.387869096384139E2  
                        -3.966017856488362E1  -1.203841794722829E1  -2.361239570822986E1  -1.042769178950546E2  -2.539252599081605E1   9.891170502511635E1  -5.772368002715579E1   1.100231251297371E2  
                        -3.869640230111207E1  -1.472355817144980E2  -2.576564047288122E1   4.780893779937289E1  -1.658384251926969E1  -1.554037840522171E2  -4.125291503479165E1   2.898598697464765E1  
                        -2.615385782348936E1  -1.772982485870271E2  -5.849412038135725E1   1.121701492434542E2  -4.055767220662016E1   7.841558217535820E1  -1.909962743153681E1   1.839410718329233E1  
                        
 5.851015015015015E10   -1.463418746252787E1   1.261901217553086E2  -4.001005291800490E1   9.532063591999520E1  -3.858846963043754E1   1.640240231831177E2  -2.567244159635812E1  -6.902602738988213E1  
                        -4.025151467019730E1   1.414423721895350E2  -2.591374117063480E1  -1.018769498263414E2  -2.540774291730973E1  -1.094083075539938E2  -5.744165462222957E1   9.347013046975555E1  
                        -3.872199566014078E1   1.589583859325573E2  -2.564678764008099E1  -1.608829825103811E2  -1.643336322116601E1   1.573779266632744E2  -4.097828913885638E1  -1.796383808271599E2  
                        -2.606661176941602E1  -2.652627109517808E1  -5.803769669972917E1   8.797131787491080E1  -4.039358165985291E1  -1.301653324419913E2  -1.969636583578470E1   4.045002839069825E1  
                        
 5.858021021021021E10   -1.614405996977373E1   9.861388175181128E1  -4.008317499018075E1  -1.107133066785410E2  -3.964025633968043E1   1.124816932546231E2  -2.559737253124274E1   8.254770046638788E1  
                        -4.022434365772416E1  -6.358876850701402E1  -2.655421413516686E1  -1.139158031609922E2  -2.535866132024886E1   4.406624616316405E1  -5.805552846874469E1   7.537284284292014E1  
                        -3.936603063335435E1   1.098920244413608E2  -2.561786499281826E1  -9.330924605366322  -1.596733990550934E1   1.574218308317281E2  -4.122478992947315E1  -2.611584024174561E1  
                        -2.596782994314278E1   1.271610127942524E2  -5.738926039774553E1   7.567170441820012E1  -4.070103613674525E1   2.228288729275305E1  -2.369810645886724E1   3.061588764576338E1  
                        
 5.865027027027026E10   -2.057944538031569E1   6.031010145918305E1  -3.986598264775014E1   3.771522540513087E1  -3.989458272982969E1   6.907083966476478E1  -2.570100650978745E1  -1.277403750028262E2  
                        -4.005221079000727E1   8.949636544785379E1  -2.277867897632905E1  -1.356191303841347E2  -2.523134436600981E1  -1.630159941568595E2  -5.779181754670486E1   6.027505878931884E1  
                        -3.961403605899556E1   6.391027530970900E1  -2.560561939611695E1   1.405837950571166E2  -2.707325001915410E1   1.080977127041142E2  -4.139959338509505E1   1.225252801352728E2  
                        -2.611897257863402E1  -8.174390684432670E1  -5.879459578838671E1   5.066660964585945E1  -4.122642880085191E1  -1.796588248881962E2  -2.002579485775305E1   2.324528224081272  
                        
 5.872033033033032E10   -2.184188914367048E1   8.413316545191735  -3.998804668496256E1  -1.703827763231286E2  -3.895251997603697E1   2.175448029041258E1  -2.625923526308882E1   2.284028984174471E1  
                        -3.990472502017914E1  -1.204901745828777E2  -2.145879982597065E1  -1.227534010321745E2  -2.550236598568565E1  -1.080637260388221E1  -5.917027669466987E1   4.570934585745900E1  
                        -3.882930637273542E1   1.276444644529746E1  -2.589350239426778E1  -6.924160181174702E1  -2.134513312512570E1   1.804051253985081E1  -4.152637918825592E1  -8.284334731979247E1  
                        -2.594187360514772E1   7.079015464012873E1  -5.886828794418702E1   4.890612230860364E1  -4.149172477798490E1  -3.031161100524525E1  -1.726779777235579E1   6.344549208889029  
                        
 5.879039039039039E10   -2.227896935461475E1  -7.008105375401078E1  -4.012081392758437E1  -1.753801756785465E1  -3.919134610213899E1  -3.763848106091147E1  -2.608681822446430E1   1.736386113778795E2  
                        -4.014178003683439E1   3.052326937174978E1  -2.593319117405165E1  -1.205931253299488E2  -2.555160449326030E1   1.390692014164958E2  -5.988926161596583E1   3.244278535127150E1  
                        -3.916913114674666E1  -4.367399814715473E1  -2.566776060128467E1   8.280563294787949E1  -2.741987522736200E1  -2.723156953884755E1  -4.143799164796718E1   6.591093832288667E1  
                        -2.600613727885808E1  -1.391735448212434E2  -5.824985649306959E1   2.653997748943121E1  -4.164806669728113E1   1.211534551568631E2  -1.730915102213877E1   2.386358427021219E1  
                        
 5.886045045045045E10   -1.898214425930666E1  -1.362261415131356E2  -3.994936269798036E1   1.333964993375455E2  -4.001799049551831E1  -8.627794222617224E1  -2.612829240202665E1  -3.700467115212314E1  
                        -3.997012840722402E1  -1.746023966572755E2  -2.288337010239178E1  -1.522586762261883E2  -2.542542208296553E1  -6.629861735826486E1  -6.035982225244165E1   3.294188515121422E1  
                        -4.038475276143995E1  -9.268246643121836E1  -2.567929810510608E1  -1.267098528502321E2  -1.714515635182640E1  -1.069370574918606E2  -4.176213860065045E1  -1.423473556230842E2  
                        -2.607823177035013E1   1.245425202052910E1  -5.868927349280745E1   2.048562016737176E1  -4.121350483872893E1  -8.803490542831860E1  -1.850512337291595E1   2.184046360568015E1  
                        
 5.893051051051051E10   -1.672600952117407E1  -1.750594966688377E2  -4.031179712609703E1  -7.770275572619893E1  -3.990006103535524E1  -1.260750121356542E2  -2.688187618760167E1   1.148545194709216E2  
                        -4.041387881527220E1  -2.670440399522519E1  -2.024009180158525E1  -1.361208940397996E2  -2.528502650857480E1   8.033553907826300E1  -5.844242182213303E1   1.966266240910228E1  
                        -3.938729389135794E1  -1.374086233434426E2  -2.609773936829136E1   2.356338053494110E1  -1.427358883304376E1  -1.191235714031088E2  -4.198313651999374E1   9.637001543025997  
                        -2.638368381997492E1   1.645101634269781E2  -5.871768145687592E1   6.326032115602945  -4.152935933786689E1   6.540351031670693E1  -1.660926009763662E1   1.806235217369591  
                        
 5.900057057057056E10   -1.456778167544920E1   1.524432599494247E2  -4.077054701978953E1   7.644148664389815E1  -3.895440205346007E1   1.746455164912830E2  -2.677234229390771E1  -8.968520680437619E1  
                        -4.088809993911902E1   1.268291408666022E2  -2.193329096675459E1  -1.123087013371417E2  -2.641319958093176E1  -1.230606661266321E2  -5.768402988182221E1   5.827882946797434E-1  
                        -3.940081781288363E1   1.668913392554111E2  -2.638086041960534E1   1.746602478065813E2  -1.831509675262844E1  -1.570151130451508E2  -4.234003047636683E1   1.603455274460449E2  
                        -2.664929184174629E1  -4.527893965591850E1  -5.747113165218301E1  -9.725782156541403  -4.181138964691988E1  -1.432553842000333E2  -1.470895865861342E1   1.046817617283670E1  
                        
 5.907063063063062E10   -1.268231405900630E1   1.200482499679737E2  -4.048294619474930E1  -1.292065331654633E2  -4.064713385752133E1   1.205309199275174E2  -2.684001854009589E1   5.963070917574961E1  
                        -4.075868964969661E1  -7.767076542150957E1  -2.214938946407369E1  -1.426858379890082E2  -2.606560709399357E1   2.943520203783563E1  -6.011637888397049E1  -1.806039278619776E1  
                        -4.031024516438519E1   1.157428745380536E2  -2.613024606179150E1  -3.079382918822038E1  -1.372456498684591E1   1.606633529912041E2  -4.229412154396012E1  -4.371258266073750E1  
                        -2.691983248101075E1   1.083817270164024E2  -5.810861600875265E1  -2.855830114417040E1  -4.192894199917521E1   1.346040559431076E1  -1.481856207943241E1   1.843092946148781E1  
                        
 5.914069069069069E10   -1.398437797948954E1   9.393878668734362E1  -4.032139149260165E1   2.344416671583691E1  -4.117528779704233E1   7.836393528362079E1  -2.703264526792990E1  -1.463031373993943E2  
                        -4.031093510489757E1   7.618970234979108E1  -2.046857487470549E1  -1.600605412171345E2  -2.603907156644967E1   1.771192553587289E2  -5.600868709496021E1  -3.313249264680420E1  
                        -4.059934358287677E1   7.359092842315359E1  -2.627855540045024E1   1.177102131489924E2  -1.664887834765517E1   1.590165269930579E2  -4.220586018953695E1   1.110494962016020E2  
                        -2.688820164269855E1  -9.659124897182147E1  -5.867571438486498E1  -4.067223825343736E1  -4.185058241804461E1   1.641144928780939E2  -1.561730863722109E1   9.840577096362747  
                        
 5.921075075075075E10   -1.446793435864208E1   5.983355517033873E1  -4.085534118060861E1   1.742476574265518E2  -3.903147720990491E1   3.343592537415903E1  -2.719536221049914E1   6.571361473132182  
                        -4.085245877519730E1  -1.305053025343088E2  -2.168764312339410E1  -1.379135443573104E2  -2.659331977646240E1  -2.796139329062661E1  -5.776018950520010E1  -4.889817415967211E1  
                        -3.991936855235620E1   2.646862235546263E1  -2.669248442537527E1  -9.052639228177566E1  -2.111364666197320E1   7.953385837629614E1  -4.214719505811322E1  -9.886330125866458E1  
                        -2.695769347396078E1   5.609019024780420E1  -5.905408833789156E1  -6.095549299843002E1  -4.193656396226041E1  -4.036300749518632E1  -1.475538925879080E1   5.529856417085326  
                        
 5.928081081081081E10   -1.621581922990105E1   2.172405847568156E1  -4.038469678676811E1  -3.283160063044068E1  -4.052489564835550E1  -2.332778823412987E1  -2.702283971426683E1   1.569065589288516E2  
                        -4.037639101375950E1   2.241540542852677E1  -2.269503638135673E1  -1.529862890105222E2  -2.587458840715615E1   1.282619070792799E2  -5.802240481297884E1  -6.876573391981340E1  
                        -3.980311409466082E1  -2.808632505935351E1  -2.655502857052774E1   6.170095147369985E1  -1.666395308920098E1   4.339287694470624E1  -4.246403803573005E1   5.748633121393180E1  
                        -2.686410833929428E1  -1.515519669004110E2  -5.937724936445535E1  -6.583123086770597E1  -4.216206280092796E1   1.122660083616603E2  -1.342921509653444E1   9.282812729271900  
                        
 5.935087087087087E10   -1.852959112489834E1  -3.410752976708200E1  -4.001375655826934E1   1.193348417355415E2  -4.062313049759233E1  -6.555127460713818E1  -2.704811814485989E1  -5.318089930645600E1  
                        -3.993743706759916E1   1.733658690686396E2  -2.215279785241160E1  -1.555389698178013E2  -2.592049198923511E1  -8.419003435721754E1  -6.104908421834654E1  -8.230477705192644E1  
                        -4.052119306545259E1  -7.388589975937130E1  -2.633006964794535E1  -1.482059858645920E2  -2.796442461409017E1  -3.092922043187435  -4.182492566004963E1  -1.512033870923925E2  
                        -2.656625835364565E1  -1.916118924648544  -5.777298026828083E1  -8.760115624866390E1  -4.088038005734702E1  -9.578649685344703E1  -1.315104839160034E1   5.005832157909346  
                        
 5.942093093093092E10   -1.777732910674119E1  -1.049282345725153E2  -4.006459532157996E1  -9.166379325982499E1  -3.945814549237371E1  -1.114352122338195E2  -2.709326801644266E1   9.684918930505852E1  
                        -3.991105650740937E1  -3.560181097800241E1  -2.124893427613825E1  -1.635597740440387E2  -2.572529403671301E1   7.056302825826808E1  -5.971911689062862E1  -8.868350955861224E1  
                        -3.966764315603493E1  -1.190831264135341E2  -2.668394298062171E1   3.240717237019350  -1.528854187894195E1  -8.868369141242167E1  -4.217183112856512E1  -1.031051215229616  
                        -2.705111542922599E1   1.482748103802915E2  -5.948302264539598E1  -9.266083461552370E1  -4.164578114671357E1   5.701849915250937E1  -1.275658828296174E1   6.081445075001699  
                        
 5.949099099099099E10   -1.449276659976485E1  -1.563005187264659E2  -4.023644425564876E1   6.055980800761843E1  -3.875360831411086E1  -1.663212610852425E2  -2.730421681219241E1  -1.103105583536811E2  
                        -4.003998894330626E1   1.145219554149403E2  -2.192755299229481E1  -1.699556933091987E2  -2.603463673931789E1  -1.454130008283855E2  -5.966825079135147E1  -1.056963313694022E2  
                        -3.907913420594425E1  -1.728889543259040E2  -2.674856558394744E1   1.561351157572354E2  -1.523448735927062E1  -1.087937138166857E2  -4.163439878684090E1   1.505187339756102E2  
                        -2.696952696477580E1  -5.945295694970263E1  -5.751244935255285E1  -1.111138339742681E2  -4.196073892242280E1  -1.493609727871637E2  -1.361234054679850E1   2.752281850313408  
                        
 5.956105105105105E10   -1.239691115107286E1   1.632181249251322E2  -4.001712452909163E1  -1.474187877647679E2  -3.990593223930554E1   1.402036290035757E2  -2.748680746700070E1   4.220984751658962E1  
                        -4.010924924184035E1  -9.195234893720449E1  -2.218394600140171E1  -1.571799472845303E2  -2.656147198743772E1   9.128534198381864  -5.783668222510634E1  -1.072807002464540E2  
                        -4.008505252100333E1   1.352069384242130E2  -2.668144749608545E1  -5.194735580631929E1  -1.577622454273783E1  -1.630085910893332E2  -4.171134660778149E1  -5.666630635234917E1  
                        -2.724061929014508E1   9.275942546740032E1  -5.912849537606112E1  -1.160326056167278E2  -4.124114179608940E1  -6.146886768913458E-1  -1.324355658090641E1  -3.602168470986851  
                        
 5.963111111111111E10   -1.168310239242243E1   1.377605288055038E2  -4.017399694401508E1   2.264773252351534  -4.078567361748200E1   9.798262018677249E1  -2.771010521621981E1  -1.669165515100140E2  
                        -4.000033426982817E1   6.166067700674731E1  -2.264561258667118E1  -1.693554852964719E2  -2.638441953353902E1   1.604836527665704E2  -5.965899039316692E1  -1.269372771885546E2  
                        -4.038533009287256E1   9.592053665090658E1  -2.661228830005627E1   9.830614858411983E1  -1.221804341035279E1   1.690388188365196E2  -4.161064709653446E1   9.683250423382214E1  
                        -2.790938352503273E1  -1.170510746228504E2  -5.599160243885218E1  -1.364577043227076E2  -4.135148679451957E1   1.515686109796765E2  -1.301770649579840E1   1.132332509568488  
                        
 5.970117117117117E10   -1.134432416643890E1   1.054138290567388E2  -4.003699109166770E1   1.544118509527230E2  -3.960679714393140E1   5.199199455332932E1  -2.808843952750814E1  -1.262012976940879E1  
                        -4.043402881034726E1  -1.458053386678683E2  -1.916676159773628E1   1.797618369664872E2  -2.654963391989774E1  -4.845985138517004E1  -5.678797363722633E1  -1.499545323866338E2  
                        -3.985927418260305E1   4.838093072804544E1  -2.713850981605469E1  -1.086386725561607E2  -1.657520573665999E1   1.406272346378846E2  -4.190660838742721E1  -1.122137557174332E2  
                        -2.793807617566369E1   3.825958862247163E1  -5.842131865265625E1  -1.471152160748741E2  -4.191391188803749E1  -5.408423356126662E1  -1.272970098279553E1   2.867391315883465  
                        
 5.977123123123122E10   -1.226832666535365E1   7.532962768606143E1  -3.992526621425179E1  -4.911999584260057E1  -3.904161208107861E1   2.533891716210650  -2.808377660362257E1   1.393080921373413E2  
                        -4.008341221874328E1   8.283981832910490  -2.144008750305131E1  -1.681809049381341E2  -2.686887562161569E1   1.061657845796203E2  -5.889566812618008E1  -1.490727223278867E2  
                        -3.959014325846024E1  -3.333249587758970E-1  -2.712798742546127E1   4.395715180535657E1  -1.570496117473524E1   8.302961864326635E1  -4.137195889330135E1   3.950259577831569E1  
                        -2.785344252916251E1  -1.659385939312745E2  -5.690541238412235E1  -1.622134837452513E2  -4.134870138549958E1   9.952583038569472E1  -1.314253893590681E1   4.617019020429653  
                        
 5.984129129129128E10   -1.224670019642370E1   3.552164009759034E1  -3.916903419433229E1   1.014160797038645E2  -4.045787589577613E1  -3.752024323403771E1  -2.761600555917127E1  -7.017506278638736E1  
                        -3.922460691819620E1   1.594316064797866E2  -2.553765192065675E1   1.743330235355929E2  -2.638847887377925E1  -9.777045315350922E1  -5.782204009840112E1   1.730279795840431E2  
                        -4.010783663184699E1  -4.467867512865045E1  -2.644582481110948E1  -1.637562559911884E2  -1.314268290320572E1   6.777532416513878E1  -4.133640053423535E1  -1.691379609431158E2  
                        -2.738556348416845E1  -1.523413315857988E1  -5.789401667291750E1   1.784033097419155E2  -4.053663250561521E1  -1.085930983209550E2  -1.358612734930263E1  -4.400268085394234  
                        
 5.991135135135135E10   -1.348074666075940E1  -1.646216498539755  -3.934602788105817E1  -1.080849961310894E2  -3.839230523531786E1  -7.830705716387206E1  -2.759555628891294E1   8.182088657723010E1  
                        -3.902012421914460E1  -5.194231198889565E1  -2.020883094708952E1   1.614249166113197E2  -2.628012641536294E1   5.168796395451273E1  -5.880864531158984E1   1.736148460386870E2  
                        -3.856451646952640E1  -8.802115383970741E1  -2.677096155744410E1  -1.351416547613067E1  -2.206226514911938E1  -6.109711619283868  -4.078970316733918E1  -1.794287599787499E1  
                        -2.734907405044496E1   1.373292624895144E2  -5.755751711995763E1   1.626576717424525E2  -4.066434506274995E1   4.419683383031030E1  -1.294656482587419E1  -2.511293940982004  
                        
 5.998141141141141E10   -1.428572265888360E1  -5.475766406879522E1  -3.958318871156895E1   4.299761503454966E1  -3.733879933891539E1  -1.365307150167616E2  -2.733788373957454E1  -1.253876954207009E2  
                        -3.881170048603823E1   9.966795094158542E1  -2.033147949605052E1   1.713428927046033E2  -2.679706520470172E1  -1.571587613035762E2  -5.659964007701841E1   1.566648787720720E2  
                        -3.764836529170741E1  -1.407158012295114E2  -2.689662019330518E1   1.391693827458709E2  -1.410632762904235E1  -6.203536194359619E1  -4.107459255159461E1   1.376493264730490E2  
                        -2.676610404509652E1  -7.329727374429457E1  -5.944172647306057E1   1.507634024362407E2  -4.029169644653366E1  -1.604935095346401E2  -1.241368197730198E1  -2.032522942236080  
                        
 6.005147147147147E10   -1.501088878685118E1  -1.091515967040066E2  -3.879078139405429E1  -1.663077620517183E2  -3.821011626796317E1   1.755210443530933E2  -2.710308049801807E1   2.583074856291520E1  
                        -3.847287130260129E1  -1.122412332686741E2  -2.244241863254508E1  -1.790148435209618E2  -2.664736297741946E1  -7.184745318419259  -5.600630464419495E1   1.467730396733117E2  
                        -3.819122822016540E1   1.683281205178847E2  -2.692992672190620E1  -6.915153441340658E1  -1.643538781486324E1  -7.850961862146698E1  -4.016547775697521E1  -7.305734953363528E1  
                        -2.695424485387428E1   7.755701124021469E1  -5.635809373732262E1   1.370899392770573E2  -4.003600752533315E1  -1.499273412518939E1  -1.370176363569509E1   2.289955070806642  
                        
 6.012153153153153E10   -1.435734768735678E1  -1.663433917409179E2  -3.872848685084347E1  -1.755153467938520E1  -3.812678124919155E1   1.316130087126296E2  -2.685766716361880E1   1.762634093966465E2  
                        -3.873767972779083E1   3.559669925530160E1  -2.004488018236809E1   1.604689054809003E2  -2.591601505326818E1   1.424128018899062E2  -5.567224771898678E1   1.232919133405532E2  
                        -3.790216624245704E1   1.249599639452411E2  -2.684112251395435E1   8.106850524686674E1  -1.428385968452565E1  -1.555022323178826E2  -4.022752141280122E1   7.677401176747283E1  
                        -2.716168762508598E1  -1.319595646682236E2  -5.795242450496424E1   1.231016905934927E2  -4.000682587382256E1   1.328893504978072E2  -1.442890536778393E1  -1.563802575343698E1  
                        
 6.019159159159158E10   -1.223030284973228E1   1.511626573713382E2  -3.911117640506195E1   1.327164495303559E2  -3.646882049382641E1   7.600038235651918E1  -2.741472625147597E1  -3.226103740571571E1  
                        -3.922381056468541E1  -1.748053737698581E2  -1.923409594114314E1   1.574700504670796E2  -2.698876384056784E1  -6.820038857287919E1  -5.631904613437975E1   1.125261296172858E2  
                        -3.723648132541538E1   7.275682371603818E1  -2.711170168600487E1  -1.252846275846044E2  -1.115453517251466E1  -1.769379653029386E2  -4.051923214041867E1  -1.311655036648462E2  
                        -2.787687825916627E1   1.768953519157735E1  -5.670080212434734E1   1.094236723109938E2  -4.043738655724321E1  -7.693608477185312E1  -1.291571121699487E1  -1.348750019741082E1  
                        
 6.026165165165165E10   -1.169148992613859E1   1.125265698615093E2  -3.863859086727790E1  -7.200755041166549E1  -3.748824743829966E1   2.509444342256918E1  -2.708181401015176E1   1.217577445262121E2  
                        -3.893985903697521E1  -2.140028962256491E1  -2.014126383889451E1   1.591219835887864E2  -2.789602918375349E1   8.790802256264703E1  -5.639291941374525E1   9.529116175327752E1  
                        -3.751896475401760E1   2.147256120032361E1  -2.690214599487889E1   2.522610059668584E1  -1.579054270591084E1   1.603584843835387E2  -3.998818170833422E1   2.038157699385845E1  
                        -2.738829942707766E1   1.731838332988239E2  -5.573368662736809E1   9.241191717245317E1  -4.056000700609047E1   7.673975810125621E1  -1.383005274987073E1  -2.200544743012608  
                        
 6.033171171171171E10   -1.068302630097417E1   7.561083244550339E1  -3.918651885834824E1   7.355003465671327E1  -3.812633719556764E1  -1.159889984258065E1  -2.687686184328145E1  -9.121291894792999E1  
                        -3.897556141933209E1   1.283314935009209E2  -2.173484337876461E1   1.312142873872101E2  -2.669537634298137E1  -1.224400656609752E2  -5.532102603839635E1   7.646681947407014E1  
                        -3.820116148405175E1  -2.025906300276737E1  -2.717617463964125E1   1.782812619267188E2  -1.307052676138147E1   1.023219910389713E2  -4.036048110622757E1   1.678963581661084E2  
                        -2.765334744133767E1  -3.568644653585982E1  -5.650024834549184E1   8.050408571523968E1  -4.036016172298664E1  -1.329286781052642E2  -1.580175496940147E1   3.817235211949349E-1  
                        
 6.040177177177177E10   -1.084235271149077E1   4.730760849189046E1  -3.898443260604173E1  -1.319300022363342E2  -3.706695111721927E1  -5.695523196818861E1  -2.719640531522960E1   6.318176017090389E1  
                        -3.893659893543664E1  -7.981214690192965E1  -2.135319848312057E1   1.353547500155775E2  -2.746138061802521E1   2.993901372566371E1  -5.702600177818585E1   6.212354827126952E1  
                        -3.698021747268280E1  -6.659616679830799E1  -2.698948485911497E1  -2.998214625790456E1  -1.481548156987774E1   9.462387150863833E1  -4.005595523815147E1  -4.076318860984014E1  
                        -2.777220643704040E1   1.184465815734332E2  -5.647513980000264E1   6.421368735306228E1  -4.082111949318497E1   1.770032492546071E1  -1.472239030957189E1  -2.212798030644024E1  
                        
 6.047183183183183E10   -1.154898153108548E1   1.465320240779570E1  -3.876737333757639E1   1.831971126522510E1  -3.650337718295570E1  -1.137126741319383E2  -2.712807334318119E1  -1.418573568363889E2  
                        -3.899917653928708E1   7.614211499175372E1  -2.525051804434038E1   1.256693730719865E2  -2.665803010140068E1  -1.722457733096640E2  -5.525624739163163E1   5.223026310552283E1  
                        -3.687153793122326E1  -1.161612230937082E2  -2.709916653559075E1   1.222797100359576E2  -1.700870353830676E1   2.806247597930871E1  -3.964586316613909E1   1.139851982798872E2  
                        -2.785384581540331E1  -8.923294817744713E1  -5.603307931959169E1   4.707345849884507E1  -4.056254659007946E1   1.747123726664698E2  -1.427432671797035E1  -1.455156208477274E1  
                        
 6.054189189189188E10   -1.198257752556004E1  -2.050295834785542E1  -3.870244965647966E1   1.706109499522982E2  -3.661394147237689E1  -1.544646021720701E2  -2.718372694610092E1   9.135305750470463  
                        -3.802030548814427E1  -1.355206220597151E2  -2.398519767540400E1   1.328710396833016E2  -2.613508856089674E1  -2.498592612448352E1  -5.628621464849867E1   3.211105650541001E1  
                        -3.642728305891521E1  -1.622681819342766E2  -2.690088364481418E1  -8.528863486350167E1  -1.321201682353811E1  -4.923192807319720  -3.933920688511712E1  -9.673446303291480E1  
                        -2.708212525694070E1   6.462771486531702E1  -5.535832000487131E1   3.476245807224622E1  -3.938564706596351E1  -3.450441662247327E1  -1.499436422910830E1   4.265101533229582  
                        
 6.061195195195195E10   -1.293134342647931E1  -6.150358550222976E1  -3.823861962954734E1  -4.240867817210407E1  -3.603851898579313E1   1.576511878272798E2  -2.723208713386396E1   1.614119625626914E2  
                        -3.830208871730748E1   1.078858915996259E1  -2.724326994632630E1   1.330591881301723E2  -2.669091473367926E1   1.253809561774023E2  -5.542381964120677E1   2.348859202360320E1  
                        -3.616395556804365E1   1.497426433720626E2  -2.660393164951881E1   6.442113999582024E1  -1.546692435225165E1  -2.552297870398726E1  -3.997974141118966E1   5.345567430458048E1  
                        -2.666335900234510E1  -1.493433419348451E2  -5.650867544002800E1   1.788911749387492E1  -3.970992568852696E1   1.108433545150421E2  -1.678379812180396E1  -6.001692320160428  
                        
 6.068201201201201E10   -1.371694372273623E1  -1.161253173179027E2  -3.853766054229500E1   1.078580369362125E2  -3.517205240456904E1   1.025389640668706E2  -2.702526155417176E1  -4.630378767070504E1  
                        -3.794762450488659E1   1.592262359707926E2  -2.449578372264049E1   1.181496758458611E2  -2.631287642682859E1  -8.620691955443736E1  -5.544536192988264E1   3.466235986563197  
                        -3.595971389594312E1   1.003791371212072E2  -2.680833327094710E1  -1.425619533988981E2  -1.483225962852991E1  -1.017942468754836E2  -3.962940267955892E1  -1.558201830698308E2  
                        -2.697140129635667E1   3.293442908272825  -5.506069938954914E1   1.492028170784511  -3.928454120536090E1  -9.700379774061950E1  -1.635792894355212E1  -2.025621728765925E1  
                        
 6.075207207207207E10   -1.348276361127490E1  -1.610547543233598E2  -3.856138643262960E1  -1.015753919270721E2  -3.613477375775021E1   5.022227125611199E1  -2.695402301624764E1   1.062243123324794E2  
                        -3.851612424969641E1  -5.372904859087359E1  -2.138201928596557E1   1.143662668897994E2  -2.645873413502671E1   6.546682181778644E1  -5.539227650086212E1  -3.615705165741625  
                        -3.607284910986129E1   4.463698222138925E1  -2.683799305600937E1   8.989830063038657  -1.154065167759681E1  -1.196287198281036E2  -3.970351936834516E1  -4.203094154947176  
                        -2.668872927496732E1   1.500110616763890E2  -5.679244561550161E1  -1.448607455324664E1  -3.840547047990108E1   4.925566971015071E1  -1.537022174768596E1  -1.322153425244591E1  
                        
 6.082213213213213E10   -1.390912971298039E1   1.565240500302067E2  -3.859157949209086E1   4.816093067116485E1  -3.687692042873614E1   7.383828921867118  -2.722104845595110E1  -1.025543787397252E2  
                        -3.858189677385738E1   9.632753953935600E1  -2.475146555732292E1   1.161646095928386E2  -2.692523832138113E1  -1.440400304738616E2  -5.487298583914348E1  -2.386374930329911E1  
                        -3.681051477256079E1   1.139858847231487  -2.702267426634401E1   1.610878876536280E2  -1.760767332203199E1  -1.699022514553481E2  -4.017712602743346E1   1.459866000400398E2  
                        -2.705910166256246E1  -5.815164936169738E1  -5.616223571574911E1  -2.755433039312758E1  -3.923926693881275E1  -1.662342407031157E2  -1.717016388306259E1  -6.145639594345770  
                        
 6.089219219219218E10   -1.296177826152293E1   1.119511370576550E2  -3.895565811542502E1  -1.631599614299682E2  -3.601770601357558E1  -3.940405054446747E1  -2.711944454513548E1   4.951979013946750E1  
                        -3.919062738158635E1  -1.150658457459933E2  -2.853217945591824E1   8.902053463752830E1  -2.657259487568365E1   5.933629788508876  -5.468546189211806E1  -4.397096860036554E1  
                        -3.623228503173651E1  -4.629873328567310E1  -2.712854798182829E1  -5.082806741491902E1  -1.424713695692126E1   1.383476183278567E2  -4.000009943210856E1  -6.187336921911786E1  
                        -2.773939899621037E1   9.316089623656414E1  -5.559375976166136E1  -4.837074253990233E1  -4.028451507778473E1  -1.470035553273016E1  -1.960525844147618E1  -1.453008011254145E1  
                        
 6.096225225225225E10   -1.216754469211057E1   7.964128674616349E1  -3.945633049642729E1  -1.194993520138618E1  -3.660991662677476E1  -9.332080771260927E1  -2.737804872994927E1  -1.568192309879445E2  
                        -3.976464433882384E1   3.854446628189643E1  -2.077362872959225E1   8.566348943185291E1  -2.728731772688676E1   1.561955055797290E2  -5.609694100313858E1  -5.528428375402790E1  
                        -3.710897884743045E1  -9.744517269199423E1  -2.725350195839466E1   1.035825582690097E2  -1.448353193655711E1   1.347553677040329E2  -4.030438463753978E1   8.976204242246951E1  
                        -2.765770301761679E1  -1.152972964780516E2  -5.675826180574589E1  -5.381303186443848E1  -4.030632700986652E1   1.392217581535561E2  -1.734456431544416E1  -3.456527827665606E1  
                        
 6.103231231231231E10   -1.190970292970265E1   4.934107784118849E1  -3.946986297989102E1   1.397897373422974E2  -3.772566922595763E1  -1.358268162825156E2  -2.700494155886907E1  -6.848127058012237  
                        -3.980981669871035E1  -1.709382382105797E2  -2.415367718665329E1   1.267967853599031E2  -2.715306459236528E1  -4.382416741766664E1  -5.424280858827001E1  -7.039140310371191E1  
                        -3.789611841354144E1  -1.412117043841683E2  -2.722484435005620E1  -1.062145707579742E2  -1.672206801006397E1   7.993774307535477E1  -4.038758603381638E1  -1.215831408899437E2  
                        -2.769935558479655E1   3.908284485183300E1  -5.619760070781772E1  -7.519966888036963E1  -4.073983769874656E1  -6.945308811214683E1  -1.790596101973884E1  -1.956832908568950E1  
                        
 6.110237237237237E10   -1.114886470720274E1   1.479945397502560E1  -3.985537365979958E1  -6.862174599074965E1  -3.759289923563528E1  -1.775257166996656E2  -2.733751946317783E1   1.445056075267654E2  
                        -3.988444145053055E1  -1.977485680685181E1  -2.465906262779478E1   7.298018243579990E1  -2.717343844098154E1   1.088125081234519E2  -5.642372925810642E1  -9.822249624774749E1  
                        -3.748277998699492E1   1.743515483542510E2  -2.741105585832211E1   4.529996462742459E1  -1.335506424817201E1   4.984399534608955E1  -4.012862292526479E1   3.138770219561968E1  
                        -2.754387137118564E1  -1.678651398223282E2  -5.585947667394692E1  -9.278348652795140E1  -4.010953081396122E1   8.260567395198355E1  -2.143088319837122E1  -1.012112009502412E1  
                        
 6.117243243243243E10   -1.072900433881192E1  -1.626335730072211E1  -4.011375713865352E1   7.955586412795130E1  -3.722696427005199E1   1.288917518626293E2  -2.729969207285093E1  -6.182081289065700E1  
                        -4.045535499958955E1   1.323175968856396E2  -2.194196155931851E1   7.788551357622818E1  -2.748071229865149E1  -9.950477394479701E1  -5.562970813419468E1  -1.083073972403636E2  
                        -3.741708802721209E1   1.237446832551159E2  -2.744376810406643E1  -1.614600208701488E2  -1.564673160696341E1   2.037516463930101E1  -4.048466726754536E1  -1.780479081582411E2  
                        -2.732272286938016E1  -1.830176710393055E1  -5.625379579745540E1  -1.198169184727200E2  -3.996966169806915E1  -1.263754924465319E2  -2.102713309199508E1  -3.265570814749389E1  
                        
 6.124249249249249E10   -1.104617047750539E1  -5.118860698690508E1  -4.060308680141326E1  -1.265716627762012E2  -3.833132014811484E1   8.547727536645547E1  -2.735383443352219E1   9.070337534316248E1  
                        -4.004227927799614E1  -7.577612833540952E1  -2.245109470501551E1   8.965142877886828E1  -2.678260250721318E1   5.132643094919408E1  -5.637980329954863E1  -1.213798301466208E2  
                        -3.794663827813513E1   7.887608995443313E1  -2.745563902800465E1  -9.201432164562281  -1.350195586400990E1  -3.195736205894768E1  -4.053800521888280E1  -2.851866280532312E1  
                        -2.717236571073235E1   1.346673963238254E2  -5.782964092878148E1  -1.322059320266255E2  -3.980667548311059E1   2.612884480824041E1  -1.953016549303721E1  -3.495285067701417E1  
                        
 6.131255255255254E10   -1.203937090751528E1  -8.255375421497568E1  -4.028722844629650E1   2.408676609675275E1  -3.733670742915765E1   4.254040208224307E1  -2.734661913809395E1  -1.167670591381479E2  
                        -4.000459047297110E1   7.284724293387242E1  -2.619802709453783E1   7.873529853695322E1  -2.633976544548112E1  -1.588040697081663E2  -5.745003707032973E1  -1.319521485993304E2  
                        -3.758616232302045E1   3.223450124989893E1  -2.724504868642957E1   1.410743270708822E2  -1.132943442860884E1  -6.106158087236816E1  -4.060947406108050E1   1.249604031673500E2  
                        -2.683719825028231E1  -7.688856012885675E1  -5.626086833214469E1  -1.428641308327899E2  -3.970204316442072E1   1.726492047060673E2  -2.204528025174823E1  -3.310460983712635E1  
                        
 6.138261261261261E10   -1.344403099365409E1  -1.294359298895678E2  -4.048259742954974E1   1.737592343167121E2  -3.793799794042239E1  -9.153671472146176  -2.732712441219145E1   3.358067760028381E1  
                        -4.031517600947477E1  -1.376524703504162E2  -2.288527104947818E1   5.212331045068522E1  -2.680792031205153E1  -1.098933472671320E1  -5.738218818303117E1  -1.504982080796181E2  
                        -3.807758056148116E1  -2.066619401779654E1  -2.758224640804202E1  -6.806834434273927E1  -1.406915901589341E1  -9.670115970266944E1  -4.085015588110453E1  -8.412729581057643E1  
                        -2.696838836868236E1   7.202567678803415E1  -5.786352502367158E1  -1.621473451064193E2  -4.085237737238872E1  -3.608900181292954E1  -2.241985089176971E1  -5.268331463975754E1  
                        
 6.145267267267267E10   -1.368125482242765E1   1.761939729835558E2  -4.115147176311812E1  -3.435898297085151E1  -3.834117103702938E1  -5.804469764914396E1  -2.749798000340687E1  -1.746448872427859E2  
                        -4.086058200476880E1   1.193523815700749E1  -2.343980052909802E1   4.101890182995323E1  -2.683495479867904E1   1.401994419811003E2  -5.801012620513865E1  -1.622017137136106E2  
                        -3.824155192479294E1  -6.790425397196341E1  -2.734738745201847E1   8.523661758081347E1  -1.205956870056444E1  -1.492992784018856E2  -4.102070780338012E1   6.788272919495562E1  
                        -2.717832368888244E1  -1.379805233413262E2  -5.853489992592022E1  -1.672089432447726E2  -4.015154937627298E1   1.105293801178641E2  -2.123693968035150E1  -4.604411952214157E1  
                        
 6.152273273273273E10   -1.334088621417339E1   1.291616275462733E2  -4.119589479606075E1   1.136479405237358E2  -3.874012624684944E1  -1.051286665076810E2  -2.755223315423439E1  -2.452177156991482E1  
                        -4.102995369202938E1   1.619662492023946E2  -2.504564676383052E1   5.413928828806942E1  -2.617809679124288E1  -7.252173239439496E1  -5.777618536777241E1  -1.704679127577038E2  
                        -3.915841935130420E1  -1.166046760093821E2  -2.734385828334593E1  -1.241470026542557E2  -1.106733025205413E1  -1.702890638768399E2  -4.131640922745055E1  -1.424459060067901E2  
                        -2.755532513238134E1   9.465785396869764  -5.806393827607887E1   1.709995212001675E2  -4.095408291231844E1  -9.549917964038522E1  -2.238594964495560E1  -5.026120012844172E1  
                        
 6.159279279279279E10   -1.194002238407540E1   8.992186462060037E1  -4.176171327911300E1  -9.388092072677372E1  -3.941230535637450E1  -1.509029747311705E2  -2.780226368452428E1   1.265071095557702E2  
                        -4.213348310597683E1  -4.426845121408589E1  -2.692890853750504E1   3.143192736268237E1  -2.715371654250896E1   8.103684417535695E1  -5.807215740733420E1   1.679976336906891E2  
                        -3.981035165117254E1  -1.592734970037606E2  -2.763196626937322E1   2.718241273048095E1  -1.426870042591648E1   1.415118457156509E2  -4.191217332501114E1   8.507799716550766  
                        -2.788568376697571E1   1.630249683772749E2  -5.915189863751554E1   1.583139260251811E2  -4.149406136534103E1   5.447885927973403E1  -2.624854577109347E1  -4.629918234693612E1  
                        
 6.166285285285284E10   -1.128527642546543E1   5.456777458230639E1  -4.221253568666897E1   6.000115066630388E1  -4.069667829478632E1   1.642232414374601E2  -2.798702460333583E1  -8.020607564267043E1  
                        -4.250632044150604E1   1.105511737289649E2  -2.692483891454523E1   2.073177545265121E1  -2.818588473210529E1  -1.231063223385974E2  -5.859369025304871E1   1.561778462297422E2  
                        -4.075049249596540E1   1.574133139913171E2  -2.783641393145054E1   1.790277160012529E2  -1.238556271901430E1   1.006686902957600E2  -4.198054953392471E1   1.628232917196820E2  
                        -2.824160415316788E1  -4.256123685737762E1  -5.854464209587972E1   1.397947633459494E2  -4.255180795808126E1  -1.542944343963098E2  -2.382353360151217E1  -7.371180060823234E1  
                        
 6.173291291291291E10   -1.049905212218978E1   2.151285660538854E1  -4.250344984200175E1  -1.467874783514395E2  -4.171505904558804E1   1.217484940129724E2  -2.826113146879559E1   7.161102534373377E1  
                        -4.265507401219606E1  -9.376466443199300E1  -2.727266672447708E1   1.425370362951153E1  -2.780851942486549E1   2.714365914517020E1  -5.874582213981321E1   1.359223439307781E2  
                        -4.150897924242291E1   1.151188202641018E2  -2.771391923924792E1  -2.974990061225889E1  -1.341789602388453E1   8.044840056134055E1  -4.263279827643306E1  -4.432862339662140E1  
                        -2.828005236903025E1   1.134552042270292E2  -5.900302870871993E1   1.247040090274763E2  -4.279695839795996E1  -3.131882659237424E-1  -2.071140665939409E1  -4.958929078815758E1  
                        
 6.180297297297297E10   -9.778419595315794  -1.193288572330881E1  -4.275453437622372E1   8.902647820922365  -4.165487351105860E1   8.617176336663124E1  -2.817132894142632E1  -1.356747024605957E2  
                        -4.256733128307652E1   6.010883207513023E1  -2.722352289932656E1   1.960359427584313E1  -2.791744424183014E1  -1.785959968151853E2  -6.148981430808418E1   1.089948700936734E2  
                        -4.143272864760333E1   7.775697406382403E1  -2.782185618013456E1   1.220842327461432E2  -1.307509765689448E1   1.758569706144058E1  -4.246169000417446E1   1.052696713175678E2  
                        -2.822736037732101E1  -9.412859403327289E1  -6.024503423214506E1   1.107969015133784E2  -4.303060400035889E1   1.547270347221738E2  -2.511741108933481E1  -4.992252926171225E1  
                        
 6.187303303303303E10   -9.016940905901633  -4.206340625006749E1  -4.293121906006714E1   1.610563560325094E2  -4.146016462871774E1   3.923651856973755E1  -2.819947195407228E1   1.688332226634066E1  
                        -4.305744670654417E1  -1.460083771009487E2  -2.699715724298636E1  -1.032688121306908E1  -2.777877190846879E1  -2.257572488861274E1  -6.264482602700250E1   1.033598477653147E2  
                        -4.172622223717159E1   3.404374299202260E1  -2.787973932835811E1  -8.486719499571754E1  -9.927467776740407  -1.040612215635091E1  -4.294866777874011E1  -9.961378207607709E1  
                        -2.831942133075048E1   5.962942770289797E1  -6.175127316689963E1   9.414085727483440E1  -4.234196577709284E1  -5.216119769486839E1  -3.093873253071362E1  -1.187448689479162E2  
                        
 6.194309309309309E10   -9.493830454330798  -7.454679726326276E1  -4.269975491865580E1  -4.625803059735291E1  -4.218603166388422E1  -5.979955119647371  -2.827845430031807E1   1.682014458122681E2  
                        -4.246869931482980E1   9.698633032595261  -2.368655267372402E1  -4.222464743881112  -2.701748742935632E1   1.298597213468612E2  -6.150849986168461E1   1.006112671446493E2  
                        -4.165376154645961E1  -9.011656744660591  -2.785561686112930E1   6.746162186954774E1  -1.176528050522162E1  -4.655371240489929E1  -4.287959133085749E1   5.592870338130741E1  
                        -2.787783898043606E1  -1.459799152962590E2  -6.418814837070006E1   8.190842709258992E1  -4.216943611553568E1   1.042890995061267E2  -2.292205431799723E1  -8.860599589950742E1  
                        
 6.201315315315315E10   -1.052932338288139E1  -1.126260798820174E2  -4.282983413872154E1   1.087156900678841E2  -4.133407894929388E1  -4.282450727032569E1  -2.792357089004876E1  -3.883753079465266E1  
                        -4.205219689208553E1   1.599335568626359E2  -2.601158722873124E1  -8.212016964783018  -2.714016327851027E1  -8.278390534692092E1  -6.284424572044278E1   7.891106453491278E1  
                        -4.144140860429664E1  -5.097604628402765E1  -2.785740069486535E1  -1.413792834004681E2  -1.089472080271900E1  -9.168680984350267E1  -4.294504992029089E1  -1.541968146495420E2  
                        -2.746660996464481E1   1.220109854587575  -6.440926563783332E1   6.224749625475352E1  -4.199558023910247E1  -1.027848876198625E2  -2.288188392627446E1  -6.156874031850063E1  
                        
 6.208321321321321E10   -1.241117185498647E1  -1.560083250839504E2  -4.266589773154295E1  -9.901476429998751E1  -4.100652089894779E1  -9.442096836919782E1  -2.799222654755586E1   1.100608968079478E2  
                        -4.245273743056563E1  -4.797512342670368E1  -2.374501205666880E1  -3.364696654752866E1  -2.680278678022629E1   6.962725045302463E1  -6.387100457213740E1   7.011011669860785E1  
                        -4.145827141436499E1  -9.932267075218424E1  -2.773976763929906E1   1.089265590584593E1  -9.007828330668581  -1.168971866504161E2  -4.324564884935062E1   9.467961280096852E-1  
                        -2.776913470477004E1   1.525151373708735E2  -6.590901891896557E1   6.277592734427615E1  -4.225150061321457E1   4.786611334803090E1  -3.074287458268268E1  -3.011101661790434  
                        
 6.215327327327327E10   -1.333830992121858E1   1.445713303902147E2  -4.263021356079850E1   5.101991456786930E1  -4.181966934323703E1  -1.392412491028253E2  -2.794833386516430E1  -9.707083166112608E1  
                        -4.247065757055999E1   1.033349741055697E2  -2.211283399076328E1  -3.250295793741124E1  -2.755971137389145E1  -1.420131329684153E2  -6.459900494104544E1   5.088057891016478E1  
                        -4.209952329600053E1  -1.455034224678675E2  -2.773809845289372E1   1.630956279412384E2  -1.232956781478512E1  -1.596615419872925E2  -4.296693170079247E1   1.530096640720202E2  
                        -2.793395582213774E1  -5.458053743006747E1  -6.887942176698410E1   5.793999968051187E1  -4.225109852679458E1  -1.623740366570993E2  -3.443346706561294E1  -1.524056807666797E2  
                        
 6.222333333333333E10   -1.276452101117697E1   9.531245176040909E1  -4.282298303314825E1  -1.563338156493260E2  -4.256075946675402E1   1.786546828725776E2  -2.786852432434865E1   5.317535977881614E1  
                        -4.264442845798243E1  -1.052346268651893E2  -2.433119543493071E1  -2.389008268763168E1  -2.755628080582577E1   5.305056407089833  -6.315683818475645E1   3.976354613210172E1  
                        -4.319539206199296E1   1.767277592688387E2  -2.762000964437039E1  -4.482034292189996E1  -1.203427587183571E1   1.473293642298152E2  -4.283656497424715E1  -5.113866465230511E1  
                        -2.805084207184867E1   9.425573927446813E1  -6.410326578975000E1   3.909578564147173E1  -4.300481528168081E1  -1.354135692052618E1  -2.411185002529443E1  -8.245722573297829E1  
                        
 6.229339339339339E10   -1.126431725919752E1   5.368621905966197E1  -4.269694737991579E1  -4.475484495079035  -4.225525172543744E1   1.331043092240531E2  -2.791572866896726E1  -1.555848792823167E2  
                        -4.287413777619071E1   5.019207139711831E1  -2.390179478089255E1  -3.743936897750755E1  -2.832790916686500E1   1.618437392056021E2  -6.493686886026357E1   5.444392398872003E1  
                        -4.289375701230638E1   1.350294416941723E2  -2.755081188708077E1   1.045763854428411E2  -1.252797226009412E1   1.150517367834771E2  -4.249230547582908E1   9.612346985175584E1  
                        -2.868257424628707E1  -1.096392714232691E2  -6.573887428048860E1   2.095553103486348E1  -4.340118652840462E1   1.454746416722267E2  -2.351677730757265E1  -3.494319506130350E1  
                        
 6.236345345345345E10   -9.995985471147749   1.547350994071097E1  -4.326497679228676E1   1.475832066847613E2  -4.299626282396049E1   9.059662306890463E1  -2.847034442988830E1  -4.982276541290551  
                        -4.311841906727117E1  -1.569618286849221E2  -2.347582119741228E1  -4.829316898507679E1  -2.811830956898258E1  -4.815761115174891E1  -6.379887059275350E1   2.497814660096240E1  
                        -4.300188949145360E1   8.972340201067347E1  -2.790997418846811E1  -1.026765128322263E2  -1.553649608569499E1   6.412590425711929E1  -4.277132018797087E1  -1.096257184694611E2  
                        -2.857055228719723E1   4.520680448593782E1  -6.568715000332175E1   2.135891835682067E1  -4.276177322897277E1  -6.090358324748976E1  -2.775888570114190E1   3.533836828570856E1  
                        
 6.243351351351351E10   -9.016623777329864  -8.571837711443312  -4.299702293242498E1  -5.894492040268311E1  -4.356974513237854E1   5.362626880347947E1  -2.809248156715784E1   1.481309740683520E2  
                        -4.274632854862075E1  -4.306033144203003  -2.237150770332466E1  -4.275416476655926E1  -2.787626684550043E1   1.126014644780098E2  -6.695500285365073E1   1.328847732442748E1  
                        -4.317913169522468E1   5.009692782618000E1  -2.781718121233213E1   4.901408178725350E1  -1.118675684777427E1   3.317488878939799E1  -4.235427506811894E1   3.990326771637729E1  
                        -2.842219455198138E1  -1.607407293861765E2  -6.700832868784907E1   6.479154438853123  -4.288955508983175E1   9.496636800905205E1  -3.442156594411070E1   1.644540853718864E2  
                        
 6.250357357357357E10   -9.158530926085273  -3.838660684767049E1  -4.277034147866053E1   9.230864067690312E1  -4.252999266830066E1   1.169422002936750E1  -2.810647628438169E1  -5.921171504907530E1  
                        -4.245239510725930E1   1.556018476118123E2  -2.407402406774631E1  -4.103896272005200E1  -2.763664879816148E1  -1.017467687226318E2  -6.707631483704628E1  -9.712581796645031  
                        -4.276068427027863E1   1.064835261741660E1  -2.789709343991962E1  -1.596485831544244E2  -1.233490782151571E1   2.996969577554658  -4.256964293800790E1  -1.675875829872369E2  
                        -2.836379428650919E1  -6.083745795692479  -6.808764857076956E1  -3.687089474097283  -4.220273579635452E1  -1.162928772977418E2  -2.399055340528494E1  -4.054206528771429E1  
                        
 6.257363363363363E10   -1.015853123594299E1  -7.353530478581639E1  -4.230022984972221E1  -1.117545763843744E2  -4.224835556719331E1  -3.042638521010891E1  -2.793517838902841E1   9.188269605790521E1  
                        -4.234428358256445E1  -5.407002020945677E1  -2.313033861612359E1  -6.744515200834491E1  -2.753637625955354E1   5.287352566157076E1  -6.952404522678684E1   2.387548400044439  
                        -4.160361881702125E1  -3.324606983903360E1  -2.772878074557020E1  -7.037627804764028  -1.081338237281395E1  -5.974360658737870E1  -4.249563752519494E1  -1.619557276069957E1  
                        -2.733812256192701E1   1.467559757917231E2  -6.893282552710417E1  -1.276530758288053  -4.277817346956093E1   3.803618821497727E1  -2.079132133949128E1  -1.187306986355256E1  
                        
 6.264369369369369E10   -1.097850077464289E1  -1.071719016140538E2  -4.232141524423477E1   3.788059992513508E1  -4.150141809644599E1  -7.735873911292180E1  -2.778513294583990E1  -1.138591688301736E2  
                        -4.147785934839344E1   9.257870697682358E1  -2.210747884288965E1  -7.691220820614804E1  -2.700688325933098E1  -1.584517621936115E2  -6.757335767614973E1  -5.021767268135592E1  
                        -4.160549504090641E1  -7.514230018865780E1  -2.790778132574579E1   1.461861809100370E2  -9.016581984212731  -7.304726954408689E1  -4.272298140924777E1   1.355928444387263E2  
                        -2.731702366535610E1  -6.237107359027198E1  -7.465506858424358E1  -1.393429755129218E1  -4.166504150562200E1  -1.683367854114010E2  -2.569432278838068E1   5.851025159063204E1  
                        
 6.271375375375375E10   -1.260213635548215E1  -1.514846595146447E2  -4.229815378906964E1  -1.723799725923046E2  -4.072954993344533E1  -1.168877782522352E2  -2.747119836689399E1   3.500245977519048E1  
                        -4.148568215237759E1  -1.148824459928988E2  -2.530727365985550E1  -8.343207034748632E1  -2.729578978160607E1  -5.468191640263779  -6.826165669677351E1  -5.852491025586668  
                        -4.126508252452858E1  -1.217689432945280E2  -2.749997618320622E1  -6.357923206499302E1  -1.152331152054634E1  -1.108687743156070E2  -4.259750120675947E1  -7.014093821121315E1  
                        -2.720966127136951E1   8.622352538973654E1  -6.744119040977461E1  -1.879897430193007E1  -4.159456202325990E1  -2.130409912066547E1  -3.480702032519022E1  -2.529247979516235E1  
                        
 6.278381381381381E10   -1.348459656414086E1   1.679118447252932E2  -4.172685847083089E1  -2.153246316898857E1  -4.019125126196774E1  -1.646199530104185E2  -2.726166069175286E1  -1.747081481759259E2  
                        -4.153347364992344E1   3.192859606778724E1  -2.110082025248304E1  -6.615686960314027E1  -2.673561337922143E1   1.444543387105983E2  -6.915182052940526E1   1.485497650550578  
                        -4.052819747476025E1  -1.708156160056891E2  -2.780078208726577E1   8.558897362868359E1  -1.146468591159704E1  -1.519456280683318E2  -4.237242461094112E1   7.818039970886738E1  
                        -2.716400496449267E1  -1.261547923361871E2  -6.658873472788376E1  -8.589369685160458  -4.183031084824496E1   1.303942033299225E2  -2.213646322425934E1  -2.311959424069636E1  
                        
 6.285387387387387E10   -1.366691838206457E1   1.164914870295113E2  -4.185891204809706E1   1.284027460175404E2  -4.118860080455092E1   1.473592606246291E2  -2.746282023037445E1  -2.202450421187732E1  
                        -4.202071240414055E1  -1.763877605066224E2  -2.358845541088714E1  -7.338352263229841E1  -2.705094063171369E1  -6.470953121309556E1  -6.820270962433806E1  -1.953723836269580E1  
                        -4.108706556612674E1   1.441659556202690E2  -2.750553407533279E1  -1.224865405286520E2  -1.172044286912506E1   1.783929290936275E2  -4.232153388320665E1  -1.303784008680948E2  
                        -2.786107068846457E1   2.241400440445863E1  -6.420306183193841E1  -2.076155895578626E1  -4.203249221585062E1  -8.016690570016020E1  -2.257058025043184E1   2.370434611892763E1  
                        
 6.292393393393393E10   -1.409278303647844E1   6.491035353383275E1  -4.196676583298245E1  -8.066568499440322E1  -4.035951948716625E1   1.069536365243174E2  -2.715695926505556E1   1.267112916640610E2  
                        -4.197609953282183E1  -2.657087691153557E1  -2.106222011967324E1  -7.907398220261094E1  -2.736368520574314E1   8.339435629605303E1  -6.452374838811093E1  -9.212252297842088  
                        -4.101973822060403E1   1.035598591551086E2  -2.740662643658515E1   3.007215401202991E1  -1.669045008730388E1   1.275276753565955E2  -4.208983804846142E1   2.040603644119717E1  
                        -2.737870936656275E1   1.742809243143713E2  -6.681082063954740E1  -3.803658000949422E1  -4.224314688242301E1   6.942988845817506E1  -2.562854731924605E1   5.104855697764879E1  
                        
 6.299399399399399E10   -1.211373629029514E1   3.142496281961688E1  -4.201340353541695E1   6.951356005001597E1  -3.996736884471385E1   6.026784931636288E1  -2.728397706624109E1  -8.073817648740042E1  
                        -4.216932924319557E1   1.260726063127148E2  -2.368481663379995E1  -7.167059978940330E1  -2.783746950966816E1  -1.252854215046103E2  -6.917479252556643E1   8.216628211797236  
                        -4.030757219435007E1   5.335813166447157E1  -2.737029326480164E1   1.799403694552193E2  -1.401574312622038E1   9.223366698059718E1  -4.188354889143154E1   1.712295569933490E2  
                        -2.765443269439211E1  -3.420217206903140E1  -6.603025056831245E1  -3.932728516685430E1  -4.245323095282538E1  -1.424870355033054E2  -2.485633395626080E1  -2.972657686831544  
                        
 6.306405405405405E10   -1.089857884432641E1  -7.932470905161554  -4.196755762805434E1  -1.393288271633170E2  -4.046231068637969E1   1.523151879254214E1  -2.724409056279184E1   7.023578886379715E1  
                        -4.265750920455957E1  -8.031023086872749E1  -2.343751064143442E1  -8.955881090481513E1  -2.771425946900142E1   2.912152708428093E1  -6.622851917003895E1  -4.218614358221047E1  
                        -4.071584254148433E1   9.631039492709725  -2.755497788155403E1  -3.007416616083734E1  -1.498564921835625E1   5.163845129407400E1  -4.254106965375605E1  -3.928106423323353E1  
                        -2.787445803297841E1   1.188976701546012E2  -6.416116454254383E1  -5.229023559587579E1  -4.249502369066634E1   1.289717030594581E1  -2.059365377018644E1   2.571066096189490  
                        
 6.313411411411411E10   -1.035650950601446E1  -4.105036802728188E1  -4.263326583648571E1   1.398308531744879E1  -4.073544884015902E1  -2.431868448286033E1  -2.737981402442077E1  -1.367313089260529E2  
                        -4.265812314847170E1   6.972145154688293E1  -2.126706402467014E1  -9.563265812915608E1  -2.744747340564845E1  -1.775680121516076E2  -6.546599497241898E1  -2.702080872511905E1  
                        -4.035167986967574E1  -3.106371419525239E1  -2.761988810224186E1   1.212140399186572E2  -1.226325381983140E1  -7.018137367785196  -4.295750994237663E1   1.137334377898557E2  
                        -2.759013856344783E1  -8.859894136601317E1  -6.415773872866762E1  -6.214984924002003E1  -4.273324653493735E1   1.649141050073805E2  -1.921706544253027E1   3.929266780644213E1  
                        
 6.320417417417417E10   -9.895318642474985  -6.839785223642262E1  -4.275876152386629E1   1.686989688069011E2  -4.003956832076462E1  -6.818027695255853E1  -2.741334676175760E1   1.355861029863024E1  
                        -4.233992601834339E1  -1.345040217096175E2  -2.020670525615206E1  -9.104779391584371E1  -2.760736264788895E1  -2.349789916157750E1  -6.511151554668052E1  -7.706856096942134E1  
                        -3.957275448693762E1  -7.720379440461811E1  -2.767200711395067E1  -8.814335502516731E1  -1.165624187772865E1  -2.659406648816719E1  -4.278084930572179E1  -9.310967608834470E1  
                        -2.751638709844968E1   6.336275814043701E1  -6.278851267731088E1  -6.966513529611143E1  -4.325354494815948E1  -4.158774898007230E1  -2.666347934475308E1   4.900293106230753E1  
                        
 6.327423423423423E10   -1.025306128816894E1  -9.821783060954896E1  -4.256175210627021E1  -4.122926166356123E1  -3.946298709972398E1  -1.193793084472254E2  -2.735646333231336E1   1.672718291301607E2  
                        -4.250741432156718E1   1.260124022560869E1  -2.275932780200013E1  -1.033134181712557E2  -2.781319021129133E1   1.252676877404416E2  -6.240789690007124E1  -7.472504948853009E1  
                        -3.916671392240619E1  -1.253113947585392E2  -2.775605445557990E1   6.268048168733537E1  -1.244162703953559E1  -6.249098415347834E1  -4.347289426724024E1   5.879278666308290E1  
                        -2.741942173676275E1  -1.463715933044241E2  -6.238358460387137E1  -7.582381368457178E1  -4.320043919022696E1   1.144090528724163E2  -2.739223965128059E1  -9.846177858949313  
                        
 6.334429429429429E10   -1.105112618271234E1  -1.319982802033083E2  -4.306733934470080E1   1.117968579706012E2  -3.893925249527991E1  -1.590940027040913E2  -2.753761705260422E1  -4.175003345726582E1  
                        -4.242348130140527E1   1.675763970322725E2  -2.257698829922362E1  -1.048173376432433E2  -2.742664077675855E1  -8.097951542769665E1  -6.133917530912104E1  -7.003259518252524E1  
                        -3.918798432285685E1  -1.681908768171681E2  -2.812121907971343E1  -1.449555757681873E2  -9.962185875545631  -1.013819355413455E2  -4.369303835775766E1  -1.462441524415187E2  
                        -2.692788840325137E1   3.594669226322324  -6.079200712289915E1  -9.172228137505651E1  -4.328728703037169E1  -9.398684650181755E1  -2.019885519022282E1   1.249419057401879E1  
                        
 6.341435435435435E10   -1.296961114189366E1  -1.650940354880565E2  -4.310821688450339E1  -9.067942844298830E1  -3.770516137353163E1   1.531687884288914E2  -2.738259489145266E1   1.095332297369283E2  
                        -4.280813335916566E1  -4.041071131837710E1  -1.961770159215658E1  -1.012625415341731E2  -2.761713833921553E1   6.743879804664169E1  -6.184930291108861E1  -1.040545599482228E2  
                        -3.820930194290568E1   1.432993616806628E2  -2.769158219017216E1   9.156362057945595  -9.408071737319885  -1.274652887025669E2  -4.358293958623413E1   7.014234458260925  
                        -2.720176441602278E1   1.511790522181014E2  -5.972682251778603E1  -1.111608831317368E2  -4.339843778154265E1   5.543685510662363E1  -1.917862828873569E1   4.911704384382296E1  
                        
 6.348441441441441E10   -1.477798767806147E1   1.364196896983135E2  -4.290065055587836E1   5.759622770225700E1  -3.768740203534179E1   9.863710659779240E1  -2.713705520660163E1  -1.003628699858197E2  
                        -4.277060329288572E1   1.095095551308685E2  -2.277303268194771E1  -1.046126659676203E2  -2.717570801565090E1  -1.379307552641763E2  -6.023521836811867E1  -1.217642260709438E2  
                        -3.817351359198982E1   9.003587090777583E1  -2.791868483982517E1   1.593662337289728E2  -1.077239649984090E1  -1.594578951350616E2  -4.344573262091909E1   1.599841789281129E2  
                        -2.735296607250614E1  -5.896543604718175E1  -6.018350397299765E1  -1.219835212045266E2  -4.323648124634533E1  -1.525286027968693E2  -3.100364964943449E1   4.818056042118233E1  
                        
 6.355447447447447E10   -1.479756949369694E1   8.972533257971143E1  -4.305535817139661E1  -1.502638140759413E2  -3.820907646028404E1   5.037454980245245E1  -2.735031197724461E1   4.967771374884487E1  
                        -4.307953944528784E1  -1.006330147993117E2  -2.210316967191600E1  -1.309343419003108E2  -2.753142718649650E1   5.488275365955309  -6.092882138109074E1  -1.310865126363482E2  
                        -3.858485968052027E1   4.495056172149443E1  -2.780025891917121E1  -4.930477739044630E1  -1.190143216356972E1   1.556779303603958E2  -4.389095752166011E1  -4.872234181486803E1  
                        -2.737482715267988E1   9.185096357041057E1  -6.040302339850624E1  -1.389570364378961E2  -4.326167749961296E1   4.612978840968066E-1  -2.260379726814537E1   1.086108206972249  
                        
 6.362453453453453E10   -1.465033568509212E1   4.809259787351608E1  -4.301662943997720E1   2.622425433119007  -3.812561071637049E1   6.839641834367905  -2.761719285554588E1  -1.583553183511130E2  
                        -4.344717685640936E1   5.543296707111762E1  -1.957103987230471E1  -1.233368085645301E2  -2.786971575145672E1   1.580888586031933E2  -5.980193500360019E1  -1.454508977876716E2  
                        -3.874080970769827E1  -1.613510344287327  -2.764547234187299E1   1.009328267411795E2  -1.214491970127915E1   1.202763835993188E2  -4.376818231460582E1   1.057797667235868E2  
                        -2.760528146015786E1  -1.176898635875292E2  -5.954563893545350E1  -1.631186064970566E2  -4.368045183901968E1   1.522608191190984E2  -2.196663511358867E1   3.766643360074042E1  
                        
 6.369459459459459E10   -1.343806639336473E1   3.249664593700414  -4.268674824929230E1   1.565665316267215E2  -3.848948870477268E1  -4.060214437439487E1  -2.778957637900805E1  -5.832475781320825  
                        -4.336131840244426E1  -1.494809789099869E2  -2.031173703093589E1  -1.280665979554140E2  -2.812488671963590E1  -4.887841780872163E1  -6.031493489720911E1  -1.521113475871064E2  
                        -3.843161274085404E1  -4.795984698542255E1  -2.756462521557230E1  -1.057400313770838E2  -1.513773630582471E1   7.466855660949352E1  -4.339621635427994E1  -1.019215615862591E2  
                        -2.807278832063050E1   3.569464874888265E1  -5.868157218911667E1  -1.749659659026774E2  -4.368377554007640E1  -5.284287640572504E1  -2.510370605733514E1   5.725716161604715E1  
                        
 6.376465465465465E10   -1.230699961909701E1  -3.091337874028607E1  -4.316099737077533E1  -5.154582043784264E1  -3.913020112220098E1  -8.688564386352687E1  -2.772027726459411E1   1.419048521295886E2  
                        -4.295555736965243E1   3.209998938903405  -2.402278539337383E1  -1.340207496818099E2  -2.828784477545989E1   1.027433663189079E2  -6.113672957520193E1  -1.755170320243134E2  
                        -3.883872822069210E1  -9.182852300276529E1  -2.778116237060285E1   4.294425313754959E1  -1.281796349960760E1   2.292302116465773E1  -4.359450934959652E1   5.047060575646106E1  
                        -2.812675597483067E1  -1.717961962558883E2  -5.903205211498986E1   1.741128793967433E2  -4.388226835209282E1   9.965723046316779E1  -2.728246325409889E1   1.309071805661182E1  
                        
 6.383471471471471E10   -1.145491125858657E1  -6.096403223278924E1  -4.339444122425540E1   1.045959112936709E2  -3.906234728500006E1  -1.309836819284742E2  -2.838842918999459E1  -6.517076885005142E1  
                        -4.321151182816474E1   1.578731733223742E2  -1.943443624829427E1  -1.423838457509627E2  -2.836686338981551E1  -1.066841075394778E2  -5.942837920224658E1   1.654006311489893E2  
                        -3.901431394112179E1  -1.374827981954043E2  -2.821720760204653E1  -1.647797949684670E2  -1.326510401191451E1  -1.052921133842533E1  -4.378269481462890E1  -1.545670712785118E2  
                        -2.827040715300419E1  -2.141463352669997E1  -5.876882334085905E1   1.634011765779892E2  -4.439750599211543E1  -1.042128943404073E2  -2.212469317241942E1   1.881302474196209  
                        
 6.390477477477477E10   -1.050001278250701E1  -9.532965348296361E1  -4.258070262016295E1  -1.035399992180518E2  -3.883871927001955E1  -1.783018505425308E2  -2.811536915548199E1   8.739221342030007E1  
                        -4.283718991148080E1  -4.636120044764468E1  -1.950708354068658E1  -1.369715940235568E2  -2.829164399478063E1   4.847544425699161E1  -6.027828906149672E1   1.603098780162744E2  
                        -3.857001868356711E1   1.785888120305519E2  -2.845413901494978E1  -1.219296127006214E1  -1.069934585607316E1  -6.014287646340317E1  -4.357427017964452E1   5.988940395375156E-1  
                        -2.844708201908778E1   1.323961685827401E2  -5.943554477504129E1   1.429588352700415E2  -4.382255413139167E1   5.049116836720762E1  -2.173735582191069E1   3.677368050809240E1  
                        
 6.397483483483483E10   -9.859874101870959  -1.294422525373884E2  -4.238063719940822E1   5.207235797009221E1  -3.832256614834434E1   1.389473077279797E2  -2.837527575071883E1  -1.233543676984684E2  
                        -4.209105036636025E1   1.053714866755031E2  -2.079010305480915E1  -1.394793007757759E2  -2.800345227918551E1  -1.616767141494543E2  -5.807895577206693E1   1.415954024242824E2  
                        -3.819222571092769E1   1.329401994294428E2  -2.849740697656157E1   1.402745474376852E2  -9.070502913178718  -8.672376554997588E1  -4.357283001870919E1   1.562666102531149E2  
                        -2.782231215168148E1  -7.588188077699022E1  -5.905797599987613E1   1.342663737917696E2  -4.335691308079495E1  -1.550414618704018E2  -2.638230440450884E1   4.193381459752975E1  
                        
 6.404489489489489E10   -1.065686454797646E1  -1.676556822119466E2  -4.229286134042938E1  -1.573481192914507E2  -3.866266219517258E1   9.035654523465124E1  -2.790849566271218E1   2.940097846473985E1  
                        -4.195028095487727E1  -1.054718903708717E2  -2.206541727718034E1  -1.542021545598346E2  -2.793676449819622E1  -1.162588461834905E1  -5.876001598450407E1   1.272288183977820E2  
                        -3.901672340158329E1   8.533458507600014E1  -2.827668647102131E1  -6.769103926436105E1  -9.962258624486351  -1.230612043254180E2  -4.272291322670539E1  -5.196320962990221E1  
                        -2.806958662921339E1   7.393602738902078E1  -5.885635460468377E1   1.182974376731681E2  -4.270395670048569E1  -2.910861525331490  -2.387390407062797E1  -4.949717527614247E1  
                        
 6.411495495495495E10   -1.052873810286365E1   1.571706368240177E2  -4.222515191077559E1  -3.258848021282554  -3.848512750888327E1   4.582379750589083E1  -2.843728947682668E1  -1.799465825468394E2  
                        -4.185280069127538E1   4.958458831265198E1  -2.097413430724166E1  -1.625778407711769E2  -2.801315520927155E1   1.399423211953643E2  -5.958372891236056E1   1.164025819042348E2  
                        -3.885223861884608E1   4.512843988367939E1  -2.855850045949030E1   8.632437765680368E1  -8.703809838587642  -1.620550179466255E2  -4.332421989529293E1   1.023261455303088E2  
                        -2.833871883121955E1  -1.343867771930405E2  -5.872702511484113E1   1.020107544187908E2  -4.266915283520142E1   1.499948765140808E2  -1.952410019643963E1  -1.163672079315667E1  
                        
 6.418501501501501E10   -1.234842173125058E1   1.174479717885637E2  -4.147536433922162E1   1.465983765459179E2  -3.787692034681984E1  -6.052623086140870  -2.830915183471458E1  -2.863070019206075E1  
                        -4.100883144226460E1  -1.589513505382936E2  -2.047433849428039E1  -1.609378802880430E2  -2.769708363206889E1  -7.065851597573311E1  -5.870212555852764E1   1.050330459525461E2  
                        -3.821505391674424E1  -2.600893426893510  -2.841109304978991E1  -1.215565876950246E2  -9.679776077193825   1.648499638954350E2  -4.254150443232663E1  -1.045444412897593E2  
                        -2.851497673544006E1   1.735488562782854E1  -5.758049309659823E1   1.009592863917731E2  -4.232840979074119E1  -5.994160027819547E1  -2.175736556681786E1   3.422568000646596E1  
                        
 6.425507507507507E10   -1.382202908510916E1   6.580407064309311E1  -4.152245404761169E1  -6.315348342282479E1  -3.861317768499177E1  -5.023293387550382E1  -2.851414324742535E1   1.202405337449963E2  
                        -4.127095264162512E1  -1.049647330587235E1  -2.181538700388011E1  -1.628093706530478E2  -2.814833551625004E1   7.954224922350775E1  -5.738907623214959E1   8.757208724553576E1  
                        -3.907645283521045E1  -5.200517549905028E1  -2.821492460007228E1   2.866619875283806E1  -1.226340110124332E1   1.264934640366032E2  -4.198849146208970E1   4.602202507305107E1  
                        -2.856240805147514E1   1.661853922114552E2  -5.729030867611973E1   7.867241748228950E1  -4.188245027151782E1   8.755816085705529E1  -3.367320207890926E1  -1.062046970661990E2  
                        
 6.432513513513513E10   -1.299453528819397E1   1.801601900071071E1  -4.125119539624591E1   8.739552221448786E1  -3.929599443935970E1  -9.238530797317516E1  -2.895811057325522E1  -8.981134203044965E1  
                        -4.161083335516156E1   1.436489794947355E2  -2.156017810424848E1   1.697999150554117E2  -2.855460285922272E1  -1.289228696697588E2  -5.971090974935891E1   6.451744353919115E1  
                        -3.911613733283694E1  -9.068141903494067E1  -2.860378566715658E1  -1.788678761482734E2  -1.240816421472104E1   7.513416728305136E1  -4.178907408318619E1  -1.610251183680026E2  
                        -2.895802467705414E1  -4.017233396998314E1  -5.942830818778602E1   6.840569970146387E1  -4.212720818686840E1  -1.157102590033550E2  -1.862426029427697E1  -6.499135523752079E1  
                        
 6.439519519519519E10   -1.176702988708430E1  -2.643795663126096E1  -4.078497385399083E1  -1.192688624572359E2  -3.826216991868800E1  -1.370312962864027E2  -2.894798779282758E1   6.298849931247627E1  
                        -4.105397901938600E1  -6.120773514054829E1  -1.943016648067357E1  -1.761014378214036E2  -2.841249534048512E1   2.707880636739316E1  -5.764269742141493E1   5.830468918274213E1  
                        -3.848198689450199E1  -1.340144318597725E2  -2.834435347648264E1  -2.740045792198838E1  -1.334356129786027E1   4.093805499226927E1  -4.142655698208772E1  -1.110736167980308E1  
                        -2.902207208908278E1   1.157160360802820E2  -5.846037039092035E1   6.243102784676514E1  -4.188267760057962E1   3.889160755269200E1  -2.024209518379780E1  -2.341670925738021E1  
                        
 6.446525525525525E10   -1.071273355534787E1  -6.357218692403875E1  -4.054788423048506E1   3.163647621149665E1  -3.860465272877837E1   1.721967609646531E2  -2.907732244432635E1  -1.446952411095334E2  
                        -4.067905979351828E1   8.771815319691187E1  -2.036534110274292E1  -1.641976602142814E2  -2.839478517993341E1   1.788749821244680E2  -5.757171693522687E1   3.676787880502108E1  
                        -3.883910624060923E1   1.773271836545713E2  -2.826851701246650E1   1.242849335488857E2  -1.425329496049887E1  -1.794142895708236E1  -4.095287269009062E1   1.410803571837805E2  
                        -2.938746170934325E1  -9.343511061707056E1  -5.829037161714074E1   4.427428754411725E1  -4.115978604732905E1  -1.709221155493162E2  -3.122316070194826E1   7.367076238670003E-1  
                        
 6.453531531531531E10   -1.062506765265082E1  -1.030227068635595E2  -4.066107911982848E1  -1.775949398186580E2  -3.910149756120395E1   1.351751343106286E2  -2.923910330920885E1   6.671242316701083  
                        -4.037160849674680E1  -1.172265510133230E2  -2.461664692831068E1   1.761086276221292E2  -2.862233319888344E1  -2.765599470995396E1  -5.650316377576934E1   2.882340353129545E1  
                        -3.915104858326961E1   1.370161815380609E2  -2.879600133450498E1  -8.810312812826282E1  -1.066848808347178E1  -5.661722217654154E1  -4.120648332535896E1  -7.024243682505437E1  
                        -2.922499365367757E1   5.912452092857643E1  -5.662985112327813E1   2.739770656076714E1  -4.098204831244866E1  -1.343376576513983E1  -2.210019027140944E1  -1.070562553043474E2  
                        
 6.460537537537537E10   -9.661171683505700  -1.354098629897362E2  -4.016709765299963E1  -2.451807544994657E1  -3.820556395480769E1   9.257762604001010E1  -2.973904100421570E1   1.594853489354545E2  
                        -3.976871663962054E1   3.283225365966136E1  -2.090471269828178E1   1.645191102256048E2  -2.856224241661684E1   1.244373789107676E2  -5.461421160958894E1   3.124588160035860E1  
                        -3.784529573968300E1   9.487531408716897E1  -2.896185664350094E1   6.744894191352869E1  -1.194674993403134E1  -8.900643846144820E1  -4.087496823707217E1   8.673406758749017E1  
                        -2.906769785693708E1  -1.466351675942830E2  -5.744585143285487E1   1.815810640644778E1  -3.993445353196139E1   1.385320061810093E2  -1.726148017688262E1  -6.436650567009274E1  
                        
 6.467543543543543E10   -1.034844469107226E1  -1.743679138544784E2  -3.950286798598035E1   1.260195650546324E2  -3.739004650212279E1   4.130744660968705E1  -2.926762401698550E1  -4.794173682566805E1  
                        -3.914646727165216E1  -1.762414421634061E2  -2.043466493511194E1   1.746003860988010E2  -2.779604538943273E1  -8.476342057206342E1  -5.577331263601771E1  -4.833154782586118E-1  
                        -3.758147366883974E1   4.118176555830481E1  -2.857739259945523E1  -1.404871221687018E2  -9.894342622592276  -1.426246115900415E2  -4.024386168470810E1  -1.265830534509184E2  
                        -2.890460897518069E1   2.388662781141445  -5.466100891145074E1   1.714119265625977  -3.946185533752669E1  -7.675508511012680E1  -2.199504299062597E1  -3.470015322833211E1  
                        
 6.474549549549549E10   -1.088599375566986E1   1.485944461761368E2  -3.930476973696678E1  -8.496198377651426E1  -3.784686640043791E1  -3.511979979555593  -2.933437224151271E1   1.034139383421296E2  
                        -3.888555281430136E1  -3.023798456430469E1  -2.777918535502604E1   1.755883603576910E2  -2.783099943654312E1   6.636505167564818E1  -5.623226488371586E1   2.195696897890551  
                        -3.830924218079927E1   1.891564615536789E-1  -2.869206007208992E1   8.999113570036670  -8.798586350810133  -1.612973685574697E2  -4.028720265894370E1   2.375460548988320E1  
                        -2.934538334834532E1   1.537352179964706E2  -5.601207980269633E1  -4.896192645328674  -3.943893356545082E1   7.265848569004020E1  -2.504885355735378E1  -1.090315750827463E2  
                        
 6.481555555555555E10   -1.146114874580618E1   1.035574159617756E2  -3.932314042449828E1   6.558016368755087E1  -3.725426686725000E1  -3.843369483300845E1  -2.994327856154009E1  -1.031955037548207E2  
                        -3.919001169769830E1   1.203120668196881E2  -2.376976478947803E1   1.530147354589677E2  -2.853776456062102E1  -1.402390642423943E2  -5.691639404031596E1  -1.745440524734835E1  
                        -3.726775706932755E1  -4.086901215292475E1  -2.897347383884425E1   1.614104157357411E2  -1.189501356857144E1   1.582731296202538E2  -4.011137801000514E1   1.759388531717551E2  
                        -2.944056718397856E1  -5.433723997958064E1  -5.704900223090895E1  -1.866026131584845E1  -3.982139071980192E1  -1.329526222629106E2  -1.788356807797020E1  -9.036497653414523E1  
                        
 6.488561561561561E10   -1.202637964244828E1   6.601094209543622E1  -3.892839726482129E1  -1.441526531534473E2  -3.615828370791447E1  -9.279834640086312E1  -2.917864970312926E1   4.992619215183036E1  
                        -3.883657861168578E1  -8.914638510204287E1  -2.066405134160167E1   1.538775765162106E2  -2.877274240508643E1   1.038632434038292E1  -5.382509163371648E1  -2.944925916273396E1  
                        -3.662200031185235E1  -9.343250787722174E1  -2.840652161953961E1  -4.653259880422402E1  -1.027957601011022E1   1.134609137593906E2  -3.950001480691317E1  -3.159052663577587E1  
                        -2.983013604700470E1   9.935832386419800E1  -5.686999805791162E1  -3.454317675402027E1  -3.924081452214642E1   1.792499552071285E1  -1.825836361395426E1  -6.413504053886122E1  
                        
 6.495567567567567E10   -1.293664032911670E1   2.713618652977176E1  -3.870111322818681E1   1.698299747471768  -3.649478448517648E1  -1.406439062161245E2  -2.920987745637691E1  -1.589181977717295E2  
                        -3.872682151960312E1   6.172565511970166E1  -2.408096385283822E1   1.718146209039697E2  -2.824827651244823E1   1.632974576015615E2  -5.425258278453851E1  -4.144999449010425E1  
                        -3.687197635178222E1  -1.404043939169471E2  -2.813271537178287E1   1.049901549892450E2  -1.257910324679444E1   9.786958458459149E1  -3.893224747610873E1   1.161720858732734E2  
                        -2.960644814616085E1  -1.088333890319859E2  -5.578429169541967E1  -5.726403989961005E1  -3.867656068909930E1   1.675315150768914E2  -2.168387217746519E1  -5.762909598073924E1  
                        
 6.502573573573573E10   -1.416849069224094E1  -1.885825873219282E1  -3.869667562721548E1   1.531212401700054E2  -3.599983454302068E1  -1.774323814723551E2  -2.944025740659261E1  -8.801861826195268  
                        -3.842460644063142E1  -1.481443880351648E2  -3.116698497808415E1   1.729953295926246E2  -2.798943344415872E1  -4.706773332934792E1  -5.557073947374300E1  -6.587770993516976E1  
                        -3.658588166893478E1   1.759035742332281E2  -2.816965775701420E1  -1.077239485584548E2  -1.584528835806742E1   4.005642411910627E1  -3.888334753189857E1  -9.513197763288125E1  
                        -2.931358479983046E1   4.121229920428795E1  -5.639761183006534E1  -6.061589667442655E1  -3.894000556120745E1  -4.305114544351116E1  -2.200734128738758E1  -1.007263462950976E2  
                        
 6.509579579579579E10   -1.302556933134583E1  -6.936472713504088E1  -3.889872029338037E1  -5.440006595105090E1  -3.548625501001126E1   1.329197588940163E2  -2.976943988708116E1   1.455465458982118E2  
                        -3.863759812977399E1   1.877753452826534  -2.367345390909182E1   1.494147030108067E2  -2.892018460772055E1   1.087667618529393E2  -5.488846915351208E1  -7.287032180140446E1  
                        -3.569551264108316E1   1.287407299463804E2  -2.863173319019134E1   4.332089593739173E1  -1.372038733000196E1   2.065180635708007  -3.824617101426782E1   5.447927876009329E1  
                        -2.958877903136015E1  -1.657395164334351E2  -5.566362514606344E1  -8.815285651033616E1  -3.885125516742022E1   1.068619080781939E2  -1.625213608480251E1  -8.115063423002358E1  
                        
 6.516585585585585E10   -1.143300058115209E1  -1.127183785098067E2  -3.826330302526174E1   9.589889083985074E1  -3.493891463716279E1   8.116882427326213E1  -2.910133005108860E1  -6.208415577898003E1  
                        -3.803070732736381E1   1.530143065553597E2  -2.403980265685553E1   1.456317493498075E2  -2.800137167621520E1  -1.013744854699994E2  -5.620196482180524E1  -8.008985643175276E1  
                        -3.557879742850653E1   7.600214717300563E1  -2.827372469567604E1  -1.642570295388555E2  -1.949108948364960E1  -5.638913423354480E1  -3.838882005982229E1  -1.558453679646902E2  
                        -2.944061132320455E1  -1.384065603944372E1  -5.400105206552836E1  -9.250292851275295E1  -3.824840624563060E1  -1.011298815770693E2  -1.773447643184666E1  -6.404492175542578E1  
                        
 6.523591591591591E10   -9.885461354901732  -1.508784647265879E2  -3.853040855110433E1  -1.173529527323472E2  -3.563139668140784E1   3.944556222004531E1  -2.938672583629568E1   8.701321907564571E1  
                        -3.780859327155579E1  -5.976855098787360E1  -2.559343084346657E1   1.751695635297252E2  -2.742401006798497E1   4.648849904485697E1  -5.435078831354655E1  -1.072539236476884E2  
                        -3.558622316422548E1   3.179767430841628E1  -2.817042794598088E1  -1.355380011919733E1  -1.190987111970703E1  -1.140708466931907E2  -3.847581017774574E1  -8.095152549413117  
                        -2.952426614361743E1   1.369042122389027E2  -5.363095510181986E1  -1.065077755759892E2  -3.809646096414866E1   4.444970756485321E1  -2.307365297655374E1  -8.127177559201424E1  
                        
 6.530597597597597E10   -9.732399888141250   1.758192084164339E2  -3.852819981279308E1   3.495698442225328E1  -3.473062675918460E1  -4.532957640297090  -2.997519322899029E1  -1.186479288459832E2  
                        -3.829493385083744E1   8.757331713124734E1  -2.785671888060741E1   1.512533178116420E2  -2.811682443854880E1  -1.595115897897677E2  -5.545001070654202E1  -1.054124463599818E2  
                        -3.489121271118037E1  -1.330468008658900E1  -2.834447874997469E1   1.381901451817375E2  -1.186057235882079E1  -1.304862027720725E2  -3.832615770879364E1   1.426339669289977E2  
                        -2.959248398562733E1  -7.300705862648562E1  -5.374630237291555E1  -1.278049855153859E2  -3.808788554717570E1  -1.642079963592633E2  -1.766818229001848E1  -1.053699862779984E2  
                        
 6.537603603603603E10   -9.170578880274301   1.424395689553249E2  -3.833386617269428E1  -1.735718080068744E2  -3.430254897701506E1  -5.975813860629676E1  -2.948960152930098E1   3.676559842235123E1  
                        -3.814192055253400E1  -1.210869678825667E2  -2.414746419409465E1   1.205725259883465E2  -2.816637909525985E1  -9.153412497663624  -5.419689286171974E1  -1.269542459397463E2  
                        -3.444374109407988E1  -6.591741578674100E1  -2.849772912982310E1  -6.707298932910979E1  -1.227988464903621E1   1.779876295890591E2  -3.847410966899470E1  -6.858125176815598E1  
                        -2.947738122569687E1   8.000304304274710E1  -5.500982360471328E1  -1.343625357847023E2  -3.780003200301102E1  -1.180708818381195E1  -1.567394078039285E1  -7.446128289969590E1  
                        
 6.544609609609609E10   -1.011331271032473E1   1.091856766071614E2  -3.804881511905310E1  -2.386231200413760E1  -3.520169480103084E1  -1.048401248741140E2  -2.961226296259239E1  -1.729943308714742E2  
                        -3.819314679974696E1   2.439695749138059E1  -2.500845603711672E1   1.702530995885039E2  -2.769210739452560E1   1.409175322677641E2  -5.470674633254612E1  -1.397482277502578E2  
                        -3.522178560597214E1  -1.160504552231256E2  -2.805432233547192E1   8.269835830382887E1  -9.660052393069872   1.490489589754479E2  -3.793666499675864E1   8.052699010718872E1  
                        -2.939648290403519E1  -1.291980145693808E2  -5.377987037113635E1  -1.504617697520543E2  -3.803465383611697E1   1.321864283214471E2  -1.887311588245813E1  -6.231626519086932E1  
                        
 6.551615615615615E10   -1.157190124987865E1   7.804255183113818E1  -3.813598959396620E1   1.248176990437127E2  -3.475730241600140E1  -1.474016833034679E2  -2.958630191308181E1  -2.311282818408055E1  
                        -3.825626000277916E1   1.729644111298883E2  -3.133972335532923E1  -1.451686205226311E2  -2.819458947008843E1  -7.268237946878578E1  -5.336262520388891E1  -1.577842361012098E2  
                        -3.487444528247836E1  -1.561762277101413E2  -2.821291551180500E1  -1.268313921557642E2  -1.092203903570371E1   1.376018190860493E2  -3.837057777761662E1  -1.285246414816435E2  
                        -2.950177254334086E1   1.717799308540464E1  -5.380868355509931E1  -1.677866482545462E2  -3.819297647343584E1  -7.949153095487834E1  -2.242260811218326E1  -8.594781235972164E1  
                        
 6.558621621621621E10   -1.296860394813864E1   4.692398210555765E1  -3.828177863637109E1  -8.457509558242620E1  -3.404472900506524E1   1.637663780050465E2  -2.965815266724581E1   1.297497770632643E2  
                        -3.843481465895148E1  -3.524467018675966E1  -2.706908928366104E1   1.465793405398484E2  -2.866464086446656E1   8.456361683971566E1  -5.544576700998083E1  -1.712248747560627E2  
                        -3.408429810103480E1   1.573736086645292E2  -2.861107368278993E1   2.663852627434035E1  -1.389241345407772E1   8.682448168949536E1  -3.824873838715811E1   2.003621080654381E1  
                        -2.969256436574021E1   1.730263872898388E2  -5.447256328242374E1  -1.769798582946040E2  -3.806883102887043E1   7.251851826615655E1  -1.685969042286576E1  -1.024794441690214E2  
                        
 6.565627627627627E10   -1.608183236883320E1   7.004865812831568E-1  -3.862051910378446E1   6.501216423650702E1  -3.413581274144489E1   1.118720296283640E2  -2.934923153124664E1  -7.752776907111927E1  
                        -3.830167708980453E1   1.124052539297087E2  -2.479545037887439E1   1.438937510358846E2  -2.817612861918864E1  -1.270603741513061E2  -5.487560449337744E1   1.719495058131926E2  
                        -3.406842610127286E1   1.058005889483456E2  -2.829785008228366E1   1.781827275100457E2  -1.218908175068250E1   5.474929639017007E1  -3.818761447538000E1   1.727861027387893E2  
                        -2.962903419209976E1  -3.427407358753709E1  -5.391422867241917E1   1.638936488293306E2  -3.821898429189757E1  -1.407521134068438E2  -1.597296913574249E1  -7.363921551841918E1  
                        
 6.572633633633633E10   -1.732210880987746E1  -5.364786870135806E1  -3.836439409008086E1  -1.484079671178094E2  -3.441036905662010E1   6.781210921773861E1  -2.925573333248939E1   7.498667454037732E1  
                        -3.825170064472231E1  -9.828217366125968E1  -2.509202783128724E1   1.733116273495328E2  -2.805139308087605E1   2.073305701306227E1  -5.395241219987166E1   1.562106843076876E2  
                        -3.404483677964142E1   6.273361848710547E1  -2.805172192345132E1  -3.110396233774412E1  -1.876558314860068E1   3.134220405708342E1  -3.841851697488284E1  -3.772274445620859E1  
                        -2.939852587791082E1   1.161386813008099E2  -5.468523784976298E1   1.507152546442286E2  -3.900291503953181E1   7.959354674522022  -2.282748745295702E1  -5.638001848704106E1  
                        
 6.579639639639639E10   -1.680682009361161E1  -1.108805863218846E2  -3.868608207718550E1   3.870888102190456  -3.309438110336914E1   1.874147759907749E1  -2.974364436673110E1  -1.348371493892842E2  
                        -3.853314587126177E1   5.149155061850288E1  -2.766369289540375E1  -1.681610008807948E2  -2.838529425315077E1   1.760136608241809E2  -5.530405876356775E1   1.353521615714080E2  
                        -3.349537090507779E1   1.381968762903189E1  -2.854736555593091E1   1.207930860085610E2  -1.579836131384971E1  -6.516250094136575E1  -3.826578624755920E1   1.122724932351725E2  
                        -2.939381785531543E1  -9.183774610664277E1  -5.468529972686932E1   1.344573420727143E2  -3.853057069078842E1   1.586441855107401E2  -2.109768834136178E1  -1.208199801716888E2  
                        
 6.586645645645645E10   -1.436595010853778E1  -1.635401048397808E2  -3.897141297042986E1   1.535231140845480E2  -3.368936870198639E1  -3.378346609215154E1  -2.939190377617915E1   1.705458619806646E1  
                        -3.871841995393621E1  -1.591052069605162E2  -3.604337728710895E1   1.592274467800062E2  -2.862025685912003E1  -3.416256520853813E1  -5.316813314072096E1   1.229217051550863E2  
                        -3.353525261326511E1  -3.826255133152435E1  -2.872164827327092E1  -8.799661019334938E1  -1.489023472172201E1  -8.202702495011012E1  -3.866933332355115E1  -9.778363273823240E1  
                        -2.937928217243100E1   5.983770638575176E1  -5.501995616476859E1   1.197746796165529E2  -3.892248528977962E1  -5.332682319828217E1  -1.703862165297380E1  -9.073886021156038E1  
                        
 6.593651651651651E10   -1.129849000047405E1   1.593646768720069E2  -3.903066102847819E1  -6.050432196089653E1  -3.441487552047921E1  -8.505166947877279E1  -2.946331370266935E1   1.672820326870220E2  
                        -3.870527960815516E1  -1.142652194935333E1  -2.253813839034355E1   1.373383308160127E2  -2.821131200923955E1   1.130017557760117E2  -5.392897539605517E1   1.075011942474682E2  
                        -3.415214911576668E1  -8.376415603907748E1  -2.853782649481406E1   6.382541674159781E1  -1.536015466479620E1  -1.561544775921524E2  -3.908781820992425E1   5.438483651047537E1  
                        -2.957864373780980E1  -1.517252112702620E2  -5.489632187509840E1   1.028517563002173E2  -3.881269387340874E1   9.789872958435578E1  -1.945332508406776E1  -5.252703403634246E1  
                        
 6.600657657657657E10   -9.145509924915922   1.348261153164861E2  -3.957751075863848E1   9.009064932119806E1  -3.418968095967416E1  -1.302870308663268E2  -2.976105792164817E1  -4.413690375533503E1  
                        -3.880391892049288E1   1.366064260565058E2  -2.600169709380069E1  -1.777438532646383E2  -2.822508935966201E1  -9.554142744983260E1  -5.460690561132701E1   9.485838644192306E1  
                        -3.393342703131727E1  -1.316037133658756E2  -2.876115689636447E1  -1.468138147842920E2  -9.411138360473640  -1.770021487563428E2  -3.935984660969316E1  -1.584719181339976E2  
                        -2.948408005788414E1  -3.283201283855065  -5.417934379602173E1   8.411624179094731E1  -3.908423364361009E1  -1.190056875727574E2  -2.895440149902891E1  -3.551089550160845E1  
                        
 6.607663663663663E10   -9.235591554552467   1.049746201884885E2  -4.046748512201845E1  -1.199339465568736E2  -3.383142197288167E1  -1.794416611022639E2  -3.010959629630143E1   1.099629958025864E2  
                        -3.973854629294790E1  -7.238327603115961E1  -3.470990557127727E1  -1.520111107117165E2  -2.856897811963502E1   5.461250326047703E1  -5.494016370719249E1   8.768092551642440E1  
                        -3.380121324155163E1  -1.786089141394184E2  -2.899189984119251E1   8.304808848423962  -1.022801519792996E1   1.646505389413904E2  -3.954080251069133E1  -2.389129258902023  
                        -3.002825515103127E1   1.523145702799293E2  -5.435631355675711E1   6.549143298878744E1  -3.902968304145516E1   3.430161755232346E1  -2.214768007305608E1  -1.392500418147334E2  
                        
 6.614669669669669E10   -9.693848988118976   7.591976363370866E1  -4.023209933046354E1   3.382460063084695E1  -3.527523320600098E1   1.297625397089692E2  -2.956507518959916E1  -9.809988173523524E1  
                        -4.060921347563443E1   8.408006819874971E1  -3.218342815845413E1   1.155840112124054E2  -2.872738686164918E1  -1.503308021968036E2  -5.517491760001471E1   6.338077946219049E1  
                        -3.490521678181430E1   1.330288239154866E2  -2.885262268936245E1   1.613807499202010E2  -1.099318076299163E1   1.157040551101010E2  -3.965073862833803E1   1.472612218166755E2  
                        -3.022142599681002E1  -5.392565954614150E1  -5.450031837485012E1   5.765336714101506E1  -3.943184301397822E1  -1.718516329719232E2  -1.834323836908810E1  -8.384815360175077E1  
                        
 6.621675675675675E10   -1.107531348173352E1   5.073438988446362E1  -4.047207209500331E1  -1.794912471427871E2  -3.514571300820451E1   8.721960735339481E1  -3.000458708601507E1   5.541112638441757E1  
                        -4.035910924811647E1  -1.272804820578564E2  -2.882153850502721E1   1.791626477667341E2  -2.821888908456500E1  -2.033244563890267  -5.458301607258931E1   4.529070292540364E1  
                        -3.502871118560568E1   9.176805521199775E1  -2.880236514293306E1  -4.702952096861329E1  -9.705896142045130   9.826890978467991E1  -3.995016711622046E1  -6.403480423386885E1  
                        -3.004602927922116E1   9.591581278020108E1  -5.471162478461475E1   3.475575060384681E1  -3.978469421323263E1  -2.706593326524599E1  -2.347638431182525E1  -3.748588492799156E1  
                        
 6.628681681681681E10   -1.413779171752727E1   1.199784702502623E1  -4.085458206989200E1  -2.665705426006837E1  -3.394032776693466E1   4.002676876339663E1  -2.994205905782722E1  -1.536079237206999E2  
                        -4.123536643108816E1   2.253493960032730E1  -3.138266991666301E1  -1.566364828789282E2  -2.890355166903317E1   1.501923490762358E2  -5.531195659788590E1   4.154518433896745E1  
                        -3.435542450942741E1   4.415427268453154E1  -2.913279143655343E1   1.027587053874458E2  -1.401443042719518E1   8.247807681720489E1  -4.023403328681651E1   8.828291952261263E1  
                        -3.012139774120863E1  -1.111995353400991E2  -5.583148095662006E1   1.946707546375154E1  -4.019676437342378E1   1.241649074029867E2  -2.950953572384638E1   1.240141285066746E2  
                        
 6.635687687687687E10   -1.571471660913341E1  -3.934123915676950E1  -4.127868277999742E1   1.238440973186395E2  -3.473990712567034E1  -1.074825709609918E1  -2.983545139388696E1  -3.482267497340152  
                        -4.171271777839301E1   1.783984764625038E2  -3.333364572910926E1  -1.714088774250662E2  -2.923179978106420E1  -5.453583050523461E1  -5.553942008403013E1   3.428873369885177E1  
                        -3.479800889129133E1  -4.822208905680069  -2.909791792273073E1  -1.044850678446517E2  -1.452892996313371E1   7.216048732456234  -3.997862580821460E1  -1.246986099599997E2  
                        -3.033396350507763E1   4.405814972833553E1  -5.656297258766563E1   2.596201835324749E1  -4.102248201085424E1  -8.275348817690471E1  -2.201802382005514E1  -1.458148060139426E2  
                        
 6.642693693693693E10   -1.791533048721252E1  -1.009497053293819E2  -4.121183067447545E1  -8.566758339862690E1  -3.525243948227433E1  -5.738273065420270E1  -2.963279977086865E1   1.456708569750344E2  
                        -4.110290695972424E1  -2.793410881505080E1  -2.827097885218219E1   1.203173024551632E2  -2.845424546170487E1   9.508832579016185E1  -5.649577637837071E1   7.975583809404956  
                        -3.506347702977252E1  -5.266492682049044E1  -2.850431270657398E1   4.720372114374460E1  -1.531496612889948E1  -1.488629390512111E1  -4.078780338406325E1   2.585984773424132E1  
                        -2.965089205452364E1  -1.653292691050797E2  -5.502627375800020E1  -3.664341122859347  -4.037417653190327E1   7.067285443592164E1  -2.379909546921386E1  -8.502979664839783E1  
                        
 6.649699699699699E10   -1.303921929516521E1  -1.599881976198062E2  -4.199783595312650E1   6.282447920343518E1  -3.495572227919686E1  -1.022163203309087E2  -3.007106495443200E1  -6.332951668663031E1  
                        -4.131425526300689E1   1.174027670102636E2  -2.557574656844889E1   1.692270840221885E2  -2.890284338463813E1  -1.166743626524841E2  -5.537723333100789E1  -8.024989737817807  
                        -3.483757981968384E1  -9.994087261807849E1  -2.864473996439524E1  -1.657984282436950E2  -1.811439284404351E1  -1.098037753698342E2  -4.091216031139802E1   1.792069404851407E2  
                        -2.961187776187623E1  -1.784822502653578E1  -5.735406859315685E1  -6.485795744912398  -4.112250865673287E1  -1.386754541073898E2  -2.436907021002868E1   3.699248308238872E1  
                        
 6.656705705705705E10   -1.079091186895253E1   1.672060873842012E2  -4.226499835635858E1  -1.431550970319317E2  -3.502448814871882E1  -1.561404617896846E2  -3.007758119014045E1   9.004296936638252E1  
                        -4.234342897747013E1  -8.757952065212916E1  -2.942987776816348E1  -1.381744970095778E2  -2.879613228441539E1   3.889212747315735E1  -5.658656735661757E1  -5.246879521345518  
                        -3.485357144970843E1  -1.495362237807362E2  -2.933511447310405E1  -1.476686367744984E1  -1.167066740147227E1  -1.450897174303522E2  -4.167727394071454E1  -3.335619553898045E1  
                        -3.003016531112840E1   1.369322438824423E2  -5.619040859165141E1  -2.578683338452477E1  -4.140572353374672E1   1.287966225023540E1  -2.274703714455476E1   1.214573708709022E2  
                        
 6.663711711711711E10   -9.383508180640753   1.329234460311549E2  -4.279086760166253E1   6.489770785008321  -3.640704598598278E1   1.560392782848619E2  -3.031939846319266E1  -1.187892533090452E2  
                        -4.202300914437522E1   6.325642416857760E1  -3.018090620786560E1   1.240861582395062E2  -2.854733726664617E1  -1.678346442789805E2  -5.789273104280079E1  -2.430185016646919E1  
                        -3.611197861415981E1   1.600104851330950E2  -2.914648365956077E1   1.383631841246470E2  -1.284841217390495E1  -1.768932110331320E2  -4.257944648786241E1   1.229134061394327E2  
                        -2.989863949624846E1  -7.080610491143928E1  -5.756308449676615E1  -4.175190410124409E1  -4.150730931599236E1   1.674901313978134E2  -2.243629799771919E1  -1.682208747767800E2  
                        
 6.670717717717717E10   -8.412514365844601   9.998837553183404E1  -4.264198825062093E1   1.625621751298885E2  -3.608442484204768E1   1.140320388974666E2  -3.040189738288004E1   3.548200427021064E1  
                        -4.292831134701030E1  -1.455815684860358E2  -2.585969842588103E1   1.571043705257919E2  -2.873145794031059E1  -2.113421551372548E1  -5.895047408264396E1  -4.672796828699614E1  
                        -3.653176841098351E1   1.162364630037479E2  -2.907114763029455E1  -7.083017612339620E1  -9.206813711896286   1.314842733291162E2  -4.237151954302341E1  -8.222755256713859E1  
                        -3.002863573826764E1   7.869893751445743E1  -5.612565288527453E1  -5.456718295964211E1  -4.180146773555526E1  -4.309487242983444E1  -3.155685906159980E1  -4.728985445869011E1  
                        
 6.677723723723723E10   -9.195642458689923   7.079088316660261E1  -4.361867213499532E1  -4.854923694858655E1  -3.647521052610313E1   6.519514866807394E1  -3.045561180587840E1  -1.759781694752008E2  
                        -4.331438904817222E1   4.631740225485722  -2.623610813676324E1   1.536603043533659E2  -2.907346874394293E1   1.307315626344678E2  -5.964671057747614E1  -6.108398498752383E1  
                        -3.647408059930304E1   6.985393805518888E1  -2.958057442518116E1   7.856144334975788E1  -8.252855826695157   1.198426036869309E2  -4.270332812645371E1   6.623688870733821E1  
                        -3.067930072998195E1  -1.267338585250248E2  -5.905281023430901E1  -8.180434597317466E1  -4.293969513429145E1   1.082353965961154E2  -2.046712597605509E1   6.966632845086859E1  
                        
 6.684729729729730E10   -9.661542347290483   4.123717914409177E1  -4.419103708188188E1   1.078758205490942E2  -3.729131418759313E1   2.107651357418969E1  -3.069923811531251E1  -2.174169887008365E1  
                        -4.384698543270929E1   1.653934219950849E2  -2.516874747074796E1  -1.665149967834650E2  -2.925655027501151E1  -7.290568629431830E1  -5.832493016783090E1  -7.406249938805914E1  
                        -3.750627633893488E1   2.195657158309246E1  -2.911192535197212E1  -1.252687575056216E2  -1.099357816338178E1   8.707896494086138E1  -4.309934528587142E1  -1.416818088016609E2  
                        -3.084311545031213E1   2.673527672623349E1  -5.795128649159624E1  -7.751844509084104E1  -4.287932235493187E1  -9.766764979913455E1  -2.085146182524097E1   1.336662101602119E2  
                        
 6.691735735735735E10   -1.141125676666349E1   1.219825158606185E1  -4.351611721952958E1  -9.764360337889119E1  -3.778941621379050E1  -2.473218773495659E1  -3.014180188968011E1   1.295791740939190E2  
                        -4.381639769084839E1  -4.054833489068607E1  -2.715909755841169E1   1.624477152022400E2  -2.887454172839942E1   8.075506469935179E1  -5.802405460018972E1  -1.012931640365551E2  
                        -3.783811846680987E1  -2.215930857718579E1  -2.847848761949378E1   2.450265531404541E1  -1.062032332465268E1   4.044090924300810E1  -4.235546890789963E1   1.133489173997351E1  
                        -3.065997390943970E1  -1.793214174987149E2  -5.761883535856870E1  -1.010854543970954E2  -4.307604848632930E1   5.845662308425145E1  -2.763125618233256E1  -1.493495917182403E2  
                        
 6.698741741741741E10   -1.386017808314947E1  -3.093388187146126E1  -4.349049374846928E1   5.262565124228496E1  -3.758461888041975E1  -6.844013429367243E1  -3.020957610351361E1  -7.950440092474494E1  
                        -4.335175084393017E1   1.107844326046416E2  -2.153392853319835E1   1.683455059935066E2  -2.900347128552076E1  -1.298370065400356E2  -6.167012004058609E1  -1.050721864511680E2  
                        -3.752949394901649E1  -6.716209242681407E1  -2.874836323684399E1   1.738955168422216E2  -1.286078811798615E1   2.757071838100901E1  -4.291717599597295E1   1.609840207780007E2  
                        -3.048352533421097E1  -2.668345342369835E1  -6.096745237808817E1  -1.193687889427282E2  -4.310472845653754E1  -1.464772345146635E2  -2.759999560798776E1   1.034085134200674E1  
                        
 6.705747747747747E10   -1.539684664934628E1  -9.086973087670957E1  -4.380371191096072E1  -1.555806779941464E2  -3.782030843827199E1  -1.173235645544908E2  -3.011426344284007E1   7.156937981760093E1  
                        -4.373988121109960E1  -9.609881269606093E1  -2.190381316673055E1   1.680302950527077E2  -2.917689851718512E1   2.129055693398294E1  -6.235948358930033E1  -1.185051427260037E2  
                        -3.768524648609473E1  -1.196200919756109E2  -2.879655290636552E1  -3.651049897776753E1  -1.960543977694047E1  -6.749047650299225E1  -4.364433455195094E1  -4.852351417225901E1  
                        -3.016638262043943E1   1.260522811110464E2  -5.961355855745615E1  -1.158549763265691E2  -4.291387062801834E1   6.314419514638582  -2.144996236505439E1   9.137717863907101E1  
                        
 6.712753753753753E10   -1.459675137608555E1  -1.524090257641132E2  -4.358635164958943E1   5.482986987651601E-1  -3.862287653412616E1  -1.703183754644599E2  -3.017697670246453E1  -1.375075835146104E2  
                        -4.340600135422870E1   5.908793306863629E1  -2.636922220283183E1  -1.715648134341685E2  -2.902552979358669E1   1.770935240905862E2  -6.131770659425406E1  -1.191517175881443E2  
                        -3.843031514418035E1  -1.747868321400863E2  -2.903349426349632E1   1.149839194073302E2  -1.282281219143532E1  -1.068027695852152E2  -4.312731193157213E1   1.031561600751995E2  
                        -2.993606659944056E1  -8.308312290707175E1  -6.166212449942645E1  -1.297935271263664E2  -4.343919180257628E1   1.633775832641942E2  -2.071602276620160E1   1.525009801489283E2  
                        
 6.719759759759760E10   -1.169735363452979E1   1.568914715931534E2  -4.359243899856857E1   1.527092879314204E2  -3.915378177193086E1   1.478391045333310E2  -3.016102267589852E1   1.271832483801716E1  
                        -4.282297634508096E1  -1.542428187477702E2  -2.186124189235890E1   1.773477785100782E2  -2.853754843111675E1  -3.612147359349170E1  -6.310084010622852E1  -1.319176349349211E2  
                        -3.927849608233180E1   1.427536859723907E2  -2.895522354923682E1  -9.378665062639290E1  -1.431648389351045E1  -1.653384620111324E2  -4.302207710431671E1  -1.036786367645405E2  
                        -2.967387388172384E1   6.541179478305584E1  -5.950411967131522E1  -1.596913577214113E2  -4.261372003045064E1  -4.460771386243393E1  -2.560709983141048E1  -1.424869410676784E2  
                        
 6.726765765765765E10   -9.211166986669074   1.200830536150480E2  -4.452236460322709E1  -5.636452468379605E1  -3.978933134987904E1   9.663450369819957E1  -3.030175338509698E1   1.624660660585437E2  
                        -4.349283931650835E1  -1.284840619883380  -2.164127288522798E1   1.580863497338574E2  -2.858959866901757E1   1.157906611086228E2  -6.339445941944689E1  -1.484590919756695E2  
                        -3.979143508851438E1   9.264210687946532E1  -2.951871544441869E1   5.503265857112012E1  -9.179172363586202   1.571299240422043E2  -4.300258093913953E1   4.719266172924451E1  
                        -2.996595125272513E1  -1.431034042625276E2  -6.118226989414116E1  -1.579843688348836E2  -4.341766106004754E1   1.005449936358104E2  -3.297653649084495E1   5.843446677327580E1  
                        
 6.733771771771771E10   -8.283101027051622   8.893483421880933E1  -4.433213792039523E1   9.989864317472521E1  -4.100518101415048E1   4.378680085368170E1  -3.062121891496762E1  -4.235703036041286E1  
                        -4.409910416022166E1   1.522407213490421E2  -2.423718451953254E1  -1.767933991283522E2  -2.894539096557752E1  -9.555455052403697E1  -6.296664257257501E1  -1.496959124594669E2  
                        -4.092303873379111E1   4.153598232671651E1  -2.969030436475853E1  -1.510130663433957E2  -8.338312048384212   1.360166078213176E2  -4.389395756963969E1  -1.566861544704634E2  
                        -3.040983546621962E1   5.512631437244957  -6.149685870414368E1   1.637262205030042E2  -4.252670130245322E1  -1.047874233813322E2  -2.442383117428849E1   1.216605224795987E2  
                        
 6.740777777777777E10   -8.147588638712655   5.902915921760032E1  -4.386988163261754E1  -1.066122726331521E2  -4.286115140930521E1   2.833467794908088  -3.057406760499204E1   1.104526003095951E2  
                        -4.369747242002018E1  -5.484935862443735E1  -2.637853872104052E1  -1.687366352873754E2  -2.860264731964374E1   5.940440157315424E1  -6.334926719360080E1   1.744752673068567E2  
                        -4.275089385821321E1  -2.945244884231333E-3  -2.906145119504396E1  -8.539288599381522E-1  -1.100392956206273E1   1.000293302759767E2  -4.365893315583893E1  -4.734310292723513  
                        -3.025223074073693E1   1.579767198817282E2  -6.340244003258574E1   1.437252162127625E2  -4.291486526573814E1   5.194504254434338E1  -2.099207732755246E1  -1.659830008659331E2  
                        
 6.747783783783783E10   -9.541621183793549   3.392289298853485E1  -4.318060995358909E1   4.229546836692827E1  -4.314818341791288E1  -4.302025234276218E1  -3.055682389001994E1  -9.858846749934912E1  
                        -4.401578975970543E1   9.394393143393711E1  -2.287380770642960E1   1.601477049955041E2  -2.898164638775808E1  -1.547455936885812E2  -7.170383360640068E1   1.397590048981697E2  
                        -4.364919726809416E1  -4.081423192961209E1  -2.923553223805870E1   1.524187213099391E2  -8.677073166920199   6.804717933865004E1  -4.350461117510826E1   1.480912943651812E2  
                        -3.046554780688091E1  -4.746748224754022E1  -6.550775380381641E1   1.327963220726194E2  -4.374870380450398E1  -1.598131697409962E2  -2.609509425327073E1  -1.381696639903416E2  
                        
 6.754789789789790E10   -1.148171291831028E1  -1.414226231582760  -4.357981959120368E1  -1.615143226399936E2  -4.474155777527903E1  -9.609536036770378E1  -3.051614204170621E1   5.437010706746651E1  
                        -4.389103376860231E1  -1.048959644447750E2  -1.960090139906130E1   1.706290156921654E2  -2.953094913277825E1  -1.800478930360045  -6.597453475030548E1   1.201159099645031E2  
                        -4.461731372458105E1  -9.526198325490449E1  -2.921691728043741E1  -5.416494125813890E1  -9.845428606717407   6.160469170933558E1  -4.310948654821495E1  -5.856755232617800E1  
                        -3.057149845873042E1   1.054904616673015E2  -6.326773385626750E1   1.522969056920960E2  -4.333449722562922E1  -8.212217326327679  -2.894531089159856E1   9.579817369194061E1  
                        
 6.761795795795795E10   -1.435363320028823E1  -3.445660434261114E1  -4.315845335660451E1  -9.731343410883978  -4.772487132136919E1  -1.477701160691465E2  -2.990546893684344E1  -1.549303806402699E2  
                        -4.327584119101676E1   4.568719167650210E1  -1.941417279869718E1   1.765995848644476E2  -2.914221101144703E1   1.516736232356122E2  -6.826599399659001E1   8.039401185067104E1  
                        -4.777713335682807E1  -1.473348393610765E2  -2.898281336328257E1   1.011784043911529E2  -1.927269995903144E1   1.207295156376003E1  -4.248992977046598E1   9.844422290324458E1  
                        -3.034241772230036E1  -1.017498958876381E2  -6.877275043307618E1   1.669823018147423E2  -4.304139378256615E1   1.461450510734926E2  -2.236012759489207E1   1.665506209134450E2  
                        
 6.768801801801801E10   -1.576444205106271E1  -9.088926683937531E1  -4.290175383547836E1   1.383980482080260E2  -4.987871659065765E1   1.676508126544673E2  -2.964250443765876E1  -4.126946543456846  
                        -4.301666380650971E1  -1.637565688062916E2  -2.313608370237307E1   1.495277589932623E2  -2.896180619419757E1  -5.952479860696645E1  -7.482359124324823E1   1.015069786176362E2  
                        -4.894830768147243E1   1.760291638088039E2  -2.886410698801532E1  -1.115426697495030E2  -1.486240816652646E1  -3.550320237763085E1  -4.205855364673812E1  -1.085487048973471E2  
                        -2.987661739553339E1   4.885631075179109E1  -6.681490554641300E1   1.044278378524748E2  -4.292479062779476E1  -6.200247778776466E1  -1.829454099491138E1  -1.305125947542725E2  
                        
 6.775807807807807E10   -1.434255714730473E1  -1.389866841605112E2  -4.346295725898829E1  -7.123067058821064E1  -5.077798081669010E1   1.103657745886499E2  -2.978943937412322E1   1.465857337444303E2  
                        -4.328511608969484E1  -1.192132131123330E1  -2.064438911032585E1   1.372503888195815E2  -2.922988383031347E1   8.847938777016907E1  -6.904688965174074E1  -1.164900572405843E2  
                        -5.151175090618995E1   1.195118303658022E2  -2.880557962122498E1   3.898600942924328E1  -2.261629866716440E1  -5.395402371080272E1  -4.269373602002521E1   3.828034157513147E1  
                        -3.017678010620441E1  -1.618430282787064E2  -6.861938477778517E1   5.750717714747597E1  -4.318124514581548E1   8.549489142900174E1  -2.732309250104208E1  -5.873402555729840E1  
                        
 6.782813813813813E10   -1.267271472768946E1   1.651184281253426E2  -4.340365542388364E1   8.153038598925552E1  -5.909442937238266E1   3.065982422421515E1  -2.960264946835189E1  -6.231408772494535E1  
                        -4.263565242295315E1   1.392657073719362E2  -1.972517857885116E1   1.674308362941814E2  -2.894531256222098E1  -1.199405143528684E2  -7.509646696481532E1   1.796345400835103E2  
                        -5.842304510878984E1   2.427493827919978E1  -2.931093108117261E1  -1.666939316670737E2  -1.346478309836841E1  -1.683802275091360E2  -4.291604829298942E1  -1.684078657702756E2  
                        -2.992077056758807E1  -7.969714387779734  -7.895262776463258E1  -1.796197191234621E2  -4.214730249777622E1  -1.274668548090912E2  -2.759512097313273E1   1.607831294964393E2  
                        
 6.789819819819819E10   -1.028548403707418E1   1.329439024663723E2  -4.290194753937353E1  -1.304424628958871E2  -6.031471690055444E1  -1.243604859758705E2  -2.986824695609399E1   8.634264087846124E1  
                        -4.266811945703272E1  -7.708825492682260E1  -2.142858635806307E1   1.481115093488525E2  -2.885570162875674E1   2.993503561198121E1  -7.621094981337629E1  -7.055748404938090E1  
                        -5.989013589898975E1  -1.216626144514578E2  -2.939793442018145E1  -1.689890307152141E1  -1.129317158614596E1  -1.766135276582793E2  -4.284186527785202E1  -1.650327246578791E1  
                        -2.970706789901208E1   1.397888636340791E2  -7.445604213397346E1   1.546545111385236E2  -4.173047077541025E1   2.223966717088489E1  -1.913130875331452E1  -1.622573953569676E2  
                        
 6.796825825825826E10   -1.020003179082060E1   1.025722381966155E2  -4.298137608137238E1   2.407218431089702E1  -5.323640485305587E1   1.598756323331468E2  -2.985545872407215E1  -1.205194178436169E2  
                        -4.358975512036586E1   7.838409681746482E1  -2.103639970432479E1   1.417919065409730E2  -2.963267384306086E1   1.757696292249995E2  -6.918312437546400E1  -1.660141858414862E2  
                        -5.369304188061112E1   1.654539885495498E2  -2.929398392279073E1   1.351338679220752E2  -1.228504253471553E1   1.237936541673302E2  -4.243775125303744E1   1.355082729827865E2  
                        -3.032416006208363E1  -7.231488431418271E1  -7.831187020743565E1   1.617700453264117E2  -4.328430988440005E1   1.697791966543892E2  -1.789376270930818E1  -1.062679271512916E2  
                        
 6.803831831831831E10   -9.709688428434323   7.166489392969939E1  -4.377518307023583E1   1.737678737747733E2  -5.022648899410821E1   1.058269691658145E2  -2.980683264498355E1   3.059488115828547E1  
                        -4.377897708535953E1  -1.324679294115958E2  -2.181129804566156E1   1.509925480776921E2  -2.959020977796348E1  -3.167510592504954E1  -6.578109720391690E1  -1.274413603680363E2  
                        -4.947195049114669E1   1.215157137353416E2  -2.988132002159932E1  -7.114780257919780E1  -8.014265437064582   1.006341103954377E2  -4.289279235564697E1  -7.011348155821221E1  
                        -3.013075519987427E1   7.947435997524919E1  -6.978191636691422E1  -1.034341766005066E2  -4.289951332364604E1  -4.211849111032836E1  -2.763110051272325E1  -5.368915204751071E1  
                        
 6.810837837837837E10   -9.995464292246380   4.507013411372382E1  -4.373629957184267E1  -3.588109875230685E1  -4.570321004936412E1   6.467215952939232E1  -3.012989471221932E1  -1.775784103084151E2  
                        -4.412896019248053E1   1.856992288943082E1  -1.915066153643361E1   1.529565717781979E2  -2.961170229585288E1   1.171899637850493E2  -6.923666995378190E1  -1.396347454938701E2  
                        -4.599482981703617E1   7.693706653300794E1  -3.008280258075887E1   8.183377175247827E1  -1.011269744893799E1   9.306296687169680E1  -4.304927545487064E1   8.136997308528852E1  
                        -3.056663320095959E1  -1.311721348064166E2  -6.735695719845919E1  -1.348019965982973E2  -4.296270981322652E1   1.096794272598288E2  -2.641060958459288E1   1.716975288208758E2  
                        
 6.817843843843843E10   -1.235830639426130E1   1.271314097231667E1  -4.318842833071023E1   1.177568437961889E2  -4.272685550362490E1   3.554856180189043  -2.992897040444072E1  -2.454518155575108E1  
                        -4.373549019048257E1   1.733442106060865E2  -2.072493949514876E1   1.478107724986449E2  -3.033230035242022E1  -8.948443719447870E1  -6.324042212645379E1  -1.788981829097276E2  
                        -4.417486472585784E1   2.171260324473866E1  -2.992661953469048E1  -1.275481951242931E2  -1.200757154511401E1   5.063120853872633E1  -4.314106582656513E1  -1.250887556809080E2  
                        -3.116976074686814E1   2.503356833883164E1  -6.771978994412049E1   1.789639715879821E2  -4.378859360309340E1  -9.283250470336063E1  -1.909845116548040E1  -1.383803991961554E2  
                        
 6.824849849849849E10   -1.292191623639127E1  -1.981589003439267E1  -4.351311292394315E1  -9.343754331527175E1  -4.325962128045522E1  -4.136383572344455E1  -3.009025913512453E1   1.259772188997842E2  
                        -4.384121211951673E1  -3.341323338041231E1  -2.197005471777558E1   1.237693924386894E2  -2.965437638270355E1   6.022904412792691E1  -6.133107303156465E1   1.448711344420522E2  
                        -4.314152916873368E1  -1.976740001004180E1  -2.960597429480874E1   2.689386234052250E1  -1.024448168182022E1   2.606842457258811E1  -4.319915827996091E1   2.445224095765025E1  
                        -3.054310776164853E1   1.773722996927512E2  -6.172747696401211E1   1.635106840786085E2  -4.409707981615914E1   5.150838167784019E1  -1.903699288390401E1  -7.588004885507712E1  
                        
 6.831855855855856E10   -1.671415612937071E1  -4.968625403960630E1  -4.364422762797890E1   5.710471898199364E1  -4.079868059583431E1  -8.718869263451229E1  -3.012696634611056E1  -8.289643874274073E1  
                        -4.417666558167205E1   1.158097906908493E2  -1.978957061135667E1   1.304269978761515E2  -3.077272024469844E1  -1.462449493886859E2  -6.590844613700541E1   1.478654833981970E2  
                        -4.055684647978611E1  -6.929859377750317E1  -2.998704654439284E1   1.782628158895340E2  -1.462834675265674E1   1.641116110541339E1  -4.363614416856940E1   1.730628267070955E2  
                        -3.082335341038212E1  -3.304209715380577E1  -6.460346758148519E1   1.573064853825004E2  -4.407291459249225E1  -1.557218616080752E2  -2.709188960760057E1  -6.517291596169351E1  
                        
 6.838861861861861E10   -1.915313416810516E1  -1.168537987066803E2  -4.353600867138613E1  -1.477280724226733E2  -3.918265086013265E1  -1.366563216027840E2  -3.029982858472876E1   6.851238769277991E1  
                        -4.382112611732884E1  -8.916971349135464E1  -1.910978057346576E1   1.325706012311781E2  -3.056334250095147E1   1.205425366750303E1  -6.251397650674755E1   1.346232213599501E2  
                        -3.921419462785670E1  -1.173805889112475E2  -2.982727943359389E1  -3.014704223549598E1  -1.911311457448744E1  -6.067450219392675E1  -4.337970437808143E1  -3.448761641536864E1  
                        -3.051418911197433E1   1.228205968815098E2  -6.393346610224904E1   1.457370030284259E2  -4.422570171300969E1  -8.767231935411610E-1  -2.545176660608206E1  -1.441758454676812E2  
                        
 6.845867867867867E10   -1.443968252153757E1  -1.741079682611482E2  -4.346263524070325E1   9.812676195446906E-1  -3.870090142705506E1   1.718776696346856E2  -3.019589642376331E1  -1.411123331525296E2  
                        -4.322875855389140E1   6.099736329157269E1  -2.048814113358150E1   1.283496042270984E2  -3.010786775740462E1   1.597299959855929E2  -6.139727742475317E1   1.179821297013255E2  
                        -3.757135832405721E1  -1.703381753056478E2  -2.971063303297001E1   1.185102763214591E2  -1.608537576765060E1  -9.449114142982256E1  -4.340772671142589E1   1.148069342814300E2  
                        -2.992285663810838E1  -8.900090174201890E1  -6.255492349952098E1   1.126749813330543E2  -4.387075723588353E1   1.499816308088278E2  -1.722370824301044E1  -1.039316914349573E2  
                        
 6.852873873873873E10   -1.172391225500828E1   1.406971324045486E2  -4.417389043828384E1   1.494695903956753E2  -3.722128141672607E1   1.241664708515234E2  -3.053384980195050E1   9.372789768629058  
                        -4.325364347506425E1  -1.508443968430233E2  -1.927023908563537E1   1.116253922442838E2  -3.024818633999589E1  -4.517850333994016E1  -5.844609772876855E1   1.019654876797387E2  
                        -3.711977617777428E1   1.360056592211352E2  -3.002519400900357E1  -9.378122020879090E1  -2.032247316897234E1   1.648646281789943E2  -4.402273377735921E1  -9.764626124316536E1  
                        -3.022678247664550E1   5.740623027818032E1  -5.961898997299119E1   8.037989823605260E1  -4.431058239230983E1  -6.376177007603910E1  -1.750078650383198E1  -5.939642982626715E1  
                        
 6.859879879879879E10   -9.751280304216737   1.064148595054770E2  -4.436507678675131E1  -5.715073323397489E1  -3.622120677166003E1   7.666005468266992E1  -3.087636182484371E1   1.627068618689382E2  
                        -4.346069222473481E1  -1.117814536632051  -1.888382998099680E1   1.128253591617883E2  -2.984919192575297E1   1.051473160728426E2  -6.105535318458596E1   9.266003959609910E1  
                        -3.627412448604127E1   8.460196398220430E1  -3.013446279993063E1   5.805279083700346E1  -1.157926276352674E1   1.420805383314424E2  -4.495259725290171E1   5.322448872247666E1  
                        -3.069060845743860E1  -1.495311912469421E2  -6.095640919748914E1   7.832801589838178E1  -4.457436892050653E1   9.404577447994825E1  -2.456720971917964E1  -3.100267389877538E1  
                        
 6.866885885885886E10   -9.166843090357022   8.149792409092871E1  -4.452050794194196E1   9.604149250180345E1  -3.613697794380395E1   2.487638479235622E1  -3.104444167591518E1  -4.352921487293109E1  
                        -4.411277548575638E1   1.500717652468973E2  -1.977569219593199E1   1.163187486448234E2  -2.945068069247752E1  -1.024122222119176E2  -6.051396010989730E1   8.178102663061337E1  
                        -3.581616398702521E1   3.221353309464824E1  -3.012252487157386E1  -1.519696250418877E2  -1.142282268148439E1   1.218869793236114E2  -4.511149467671852E1  -1.536580521529033E2  
                        -3.063134541303570E1   1.989863989365451  -5.987817877892608E1   6.217568532475737E1  -4.441507994000440E1  -1.144697803486213E2  -2.311737231178870E1  -1.270289607023943E2  
                        
 6.873891891891892E10   -9.734906572933275   5.261604503732158E1  -4.452358961299119E1  -1.117445497506478E2  -3.621448284119543E1  -2.443492428157272E1  -3.089278087844822E1   1.074693878320280E2  
                        -4.512394164589957E1  -5.982027348062368E1  -1.850621848990221E1   1.039389213683494E2  -3.012027497666497E1   4.610284271904428E1  -5.751356635987698E1   5.140629056938750E1  
                        -3.595800734786376E1  -1.810949867855408E1  -3.027728055979284E1  -3.396145490342872  -1.071373482691646E1   6.137151441565035E1  -4.564743998494429E1   1.006857350480105  
                        -3.136347959233116E1   1.510526048959147E2  -5.840415264984045E1   4.329140537396144E1  -4.591758290918751E1   3.820392917824689E1  -1.694042948967186E1  -8.681675030745635E1  
                        
 6.880897897897897E10   -1.041777928949797E1   2.245725130140080E1  -4.507381893602742E1   3.868145662894357E1  -3.594302792018625E1  -7.105390138645241E1  -3.112397022436031E1  -1.004437100721983E2  
                        -4.604982914805957E1   9.406019186998275E1  -1.709240479835937E1   1.020386665316522E2  -3.058240829687882E1  -1.620309246490652E2  -5.923419806630439E1   4.244676018219634E1  
                        -3.601131828401477E1  -6.511873580546974E1  -3.041662795699469E1   1.475117203076501E2  -7.987559440413564   5.012970243000382E1  -4.615783395742230E1   1.515226580040932E2  
                        -3.167797854122942E1  -5.596097077875380E1  -5.885764088016411E1   3.511810638010378E1  -4.660919526968051E1  -1.740785813985294E2  -1.790019414757285E1  -5.501149848449234E1  
                        
 6.887903903903903E10   -1.161792481234813E1  -9.200148770384793  -4.546598954004920E1  -1.674509405429429E2  -3.554234808922483E1  -1.138655275866320E2  -3.106191577040644E1   5.087361351374896E1  
                        -4.593609699936300E1  -1.057636765960808E2  -1.879295113099066E1   9.251900284868898E1  -3.106271766129963E1  -6.050736670240622  -5.918691626658527E1   3.299021223553250E1  
                        -3.590179696373898E1  -1.104733145037685E2  -3.062681380553271E1  -6.009177559729858E1  -1.170365612079879E1   3.443112426993272E1  -4.648775036779003E1  -5.323067479354207E1  
                        -3.172557394692547E1   9.948875519059205E1  -5.784253323742870E1   1.121457273592448E1  -4.693243946746907E1  -1.358153559490191E1  -2.679254201603683E1  -5.576143397610354E1  
                        
 6.894909909909909E10   -1.472894371601666E1  -5.694043867993254E1  -4.545861811394208E1  -1.300990102793891E1  -3.562931217911613E1  -1.593170636705097E2  -3.136953532831992E1  -1.575992174223264E2  
                        -4.573854222171085E1   4.611359239849863E1  -1.737374666378993E1   7.649245529274559E1  -3.107373266725445E1   1.469715904916350E2  -5.736154316336481E1   6.326254648589531  
                        -3.544333003211151E1  -1.568869727355404E2  -3.084558699300168E1   8.872717846285444E1  -1.143138080614035E1  -1.631075670018377E1  -4.619971483980526E1   9.636853451756160E1  
                        -3.179722185997951E1  -1.055793561312276E2  -5.819713703894436E1  -1.485632304763264E1  -4.641274106223424E1   1.455228425018801E2  -2.330209970914676E1  -1.320191285408381E2  
                        
 6.901915915915915E10   -1.462822082739446E1  -9.301360369912523E1  -4.573762133479650E1   1.368640100540802E2  -3.477000485122817E1   1.542667279066840E2  -3.183570460031448E1  -5.539896554362062  
                        -4.608231695753273E1  -1.623089999029054E2  -1.905229793688600E1   7.299235184659464E1  -3.146748674135486E1  -6.012448425728218E1  -5.871353056752243E1  -6.023372263376583  
                        -3.478784499150467E1   1.551178465761186E2  -3.107209643354401E1  -1.202896526011561E2  -1.193839117120930E1  -3.319222991313643E1  -4.652712945011413E1  -1.110768398563838E2  
                        -3.191356807340789E1   4.616705432351671E1  -5.853250394821166E1  -1.166952221844226E1  -4.751937403949922E1  -6.057482095233812E1  -1.991087829272111E1  -1.026957645832026E2  
                        
 6.908921921921921E10   -1.440049277049021E1  -1.514759567865497E2  -4.671588573840889E1  -6.515800423794454E1  -3.455633429271205E1   1.106730223770085E2  -3.225545484399397E1   1.476272834932389E2  
                        -4.611197396141063E1  -2.757808380372080  -2.153380697376451E1   5.602602886417766E1  -3.137097732305386E1   9.572392660528043E1  -5.870412473903222E1  -2.105461940359177E1  
                        -3.422485543152101E1   1.102204719394920E2  -3.173549606204873E1   3.435156760035603E1  -2.007271730788146E1  -9.756702801600771E1  -4.775501801778701E1   4.648438829919355E1  
                        -3.200166381201768E1  -1.590786014972148E2  -5.958837999199104E1  -1.287612730026805E1  -4.767689336467824E1   9.808245579007640E1  -3.785288908808251E1  -2.046922252207865E1  
                        
 6.915927927927927E10   -1.107896884537655E1   1.624458809332821E2  -4.578954528085664E1   9.506987407990515E1  -3.324999196531802E1   6.113545806117681E1  -3.228070320012374E1  -5.542262967212214E1  
                        -4.494797881718420E1   1.522898233889311E2  -2.537426784948137E1   2.767821468846234E1  -3.109032676218945E1  -1.058376500296392E2  -5.831700302685547E1  -3.867144336733308E1  
                        -3.347194928151463E1   5.853509845683271E1  -3.183213018494512E1  -1.700959887019425E2  -1.383107161691941E1  -1.570944714832339E2  -4.735652852897775E1  -1.518687605517044E2  
                        -3.158249816140160E1  -4.435469479957969  -5.675345192016761E1  -2.450847500420488E1  -4.654022725960468E1  -1.038162718533026E2  -2.126782026959633E1   1.153241349974450E2  
                        
 6.922933933933934E10   -1.105844320846119E1   1.241023061124697E2  -4.532614157683886E1  -1.129889564616433E2  -3.317548475936217E1   9.138390719317918  -3.164211750904509E1   1.008961702477055E2  
                        -4.490792383084335E1  -5.726080535655817E1  -2.591885966722586E1   3.439547879380612  -3.055932533982178E1   3.980533329666805E1  -5.728802434511589E1  -3.167571975469207E1  
                        -3.370689480188048E1   6.745684386331162  -3.112438278482030E1  -1.583831921617346E1  -1.380959047527249E1   1.521162593263067E2  -4.675262835483851E1   1.478974417638705  
                        -3.108593973134185E1   1.468963359006908E2  -5.851512090435711E1  -4.127840329154861E1  -4.584878405346548E1   5.352875113923924E1  -2.040742157354321E1   1.276945713060640E2  
                        
 6.929939939939940E10   -9.519539829843097   8.022351995051267E1  -4.507719503815881E1   4.221161633703040E1  -3.359361989693716E1  -4.070309561781899E1  -3.124905314938308E1  -1.084703703888142E2  
                        -4.516349012883844E1   9.129776308025673E1  -3.002701465599866E1   8.028648906394749E1  -3.052376849218893E1  -1.713436423761541E2  -5.714312307029996E1  -4.680985694455434E1  
                        -3.387270021756513E1  -4.328348700325446E1  -3.101545005866962E1   1.349754326487269E2  -1.074701843036913E1   1.019771553101473E2  -4.641295307078970E1   1.547698391822446E2  
                        -3.089926125171418E1  -6.446777069184284E1  -5.662219246578256E1  -5.544558088714855E1  -4.525635610939133E1  -1.549782425946036E2  -2.313166626942769E1   4.562264514120618E1  
                        
 6.936945945945946E10   -9.162536188325323   5.068465437169549E1  -4.433684052411991E1  -1.679369473161670E2  -3.359044518132508E1  -8.883707384210736E1  -3.128010050683138E1   4.223651225342889E1  
                        -4.472615099628116E1  -1.150316439335440E2  -2.442847423897129E1   9.223177719059159E1  -3.066041093237524E1  -1.961751807958514E1  -5.514199689950900E1  -5.954093701038672E1  
                        -3.373677995181327E1  -8.807470355654154E1  -3.052430192306686E1  -7.052301869062434E1  -8.414961753856385   8.162501501697062E1  -4.560197100321151E1  -5.081464195631604E1  
                        -3.084474250516138E1   8.313033683836964E1  -5.707841496329417E1  -7.607415307426238E1  -4.511134702153215E1  -7.665027928734319  -1.676063517286455E1   4.659157101076141E1  
                        
 6.943951951951952E10   -9.774799557063156   1.878170527124808E1  -4.378322878933368E1  -1.654056460358241E1  -3.397829001557952E1  -1.381418055469603E2  -3.085752575991854E1  -1.673044356734049E2  
                        -4.431629875523547E1   3.848212696759244E1  -2.332681220066925E1   1.291814786081538E2  -3.073048611619240E1   1.300010062510445E2  -5.697406559940221E1  -8.714155919146870E1  
                        -3.414270734272964E1  -1.350791239726983E2  -3.098433290036515E1   7.963019085333148E1  -9.822108330887001   5.072060089436172E1  -4.581111571603363E1   1.025414233224130E2  
                        -3.118453105065854E1  -1.223188309168307E2  -5.564093377030622E1  -8.979893529647801E1  -4.525330072585239E1   1.461120863309769E2  -1.603360088974025E1   6.719882861354576E1  
                        
 6.950957957957958E10   -1.107405354108238E1  -1.126229959777281E1  -4.457758190514952E1   1.347856332589144E2  -3.423576556014790E1   1.795019872962443E2  -3.074850361731351E1  -1.815474962337434E1  
                        -4.468156665938690E1  -1.735680979739484E2  -2.746006308833943E1   8.734744075743139E1  -3.111479872783389E1  -8.310870067752163E1  -5.626087404917156E1  -1.073717363351270E2  
                        -3.418886512086330E1  -1.780530743916371E2  -3.099560000454989E1  -1.274524194120156E2  -8.846920760670015   2.012302287481304E1  -4.511607029729865E1  -1.043637960951487E2  
                        -3.101091426933385E1   2.960430135693053E1  -5.528732399644335E1  -1.121478197767142E2  -4.538726236185109E1  -5.926982020442425E1  -1.976815954417516E1   6.813120664050977E1  
                        
 6.957963963963963E10   -1.329841155587162E1  -4.052139929668993E1  -4.440617792162211E1  -7.155187039229718E1  -3.370854130142099E1   1.263507659163030E2  -3.085392759585297E1   1.337286321573076E2  
                        -4.449668011024792E1  -1.276504259127255E1  -1.984289026483175E1   9.121163782642788E1  -3.165367211251553E1   7.379813542967064E1  -5.643219137485982E1  -1.136327333719106E2  
                        -3.389872494540111E1   1.409200607018223E2  -3.094523478856817E1   2.960392215688148E1  -9.929856788448673   4.236955798449487  -4.458301093274493E1   5.215860309237225E1  
                        -3.142855059772714E1  -1.749499275211788E2  -5.497298909155818E1  -1.194607932750620E2  -4.508573361215692E1   8.945097648807422E1  -1.678343724934353E1   3.739038650445139E1  
                        
 6.964969969969969E10   -1.544224791282724E1  -8.372467073679509E1  -4.317106887294256E1   8.185346585134545E1  -3.391758003911451E1   8.293252577232367E1  -3.065624316400568E1  -7.338353723659903E1  
                        -4.291061559389180E1   1.404841786255201E2  -2.170447170670520E1   1.105329147782048E2  -3.051502009441463E1  -1.336444942303708E2  -5.486904412971715E1  -1.329314644674838E2  
                        -3.332693571812364E1   9.845738599445950E1  -3.013866752922172E1  -1.777081793048979E2  -1.357086416400040E1  -1.435578893342616E1  -4.426519305777899E1  -1.518944391581717E2  
                        -3.065653945621151E1  -2.096141744965917E1  -5.752506300938281E1  -1.342874460664299E2  -4.399971319571422E1  -1.175598357914667E2  -1.526531619741152E1   4.620808222443978E1  
                        
 6.971975975975975E10   -1.603566495605598E1  -1.436234000117046E2  -4.280248283509921E1  -1.300728089256286E2  -3.314031036987789E1   3.469980769596742E1  -3.053233869520831E1   7.709249121341087E1  
                        -4.278129206760836E1  -7.340316950830409E1  -2.408065928572726E1   9.778318502875203E1  -3.035344313437420E1   9.045652087195290  -5.399109925718663E1  -1.520033391036075E2  
                        -3.289852992967547E1   5.062339364128255E1  -3.017418956132130E1  -2.861502020142249E1  -1.510767199479842E1  -7.628379485651642E1  -4.383650119740180E1   5.237111349371513  
                        -3.010626689285839E1   1.277348505051873E2  -5.468501568370935E1  -1.576055240849635E2  -4.366299664374721E1   3.323164360613507E1  -1.724396564584867E1   7.186474729629158E1  
                        
 6.978981981981981E10   -1.621971305273710E1   1.492993847714257E2  -4.295624722025649E1   1.771417014756162E1  -3.275935780744680E1  -1.593539694381542E1  -3.083708153306258E1  -1.313135561193081E2  
                        -4.215565149264407E1   7.372591650193618E1  -2.187924586180265E1   8.187760002162332E1  -3.062893017900139E1   1.592460780192517E2  -5.618455746241063E1  -1.662397184457672E2  
                        -3.277989060417863E1   3.121005808613531  -3.015926236945901E1   1.238386178013907E2  -2.126367304416385E1  -9.690994728852586E1  -4.373974022929518E1   1.525035377571917E2  
                        -3.041360977851552E1  -8.327473382417706E1  -5.552571620609617E1  -1.634069950437022E2  -4.345796330012765E1  -1.766208541693021E2  -1.972909947784421E1   5.230746046240277E1  
                        
 6.985987987987987E10   -1.273630306086294E1   9.783012501550840E1  -4.310169889591214E1   1.612759909416047E2  -3.206931865754426E1  -6.797292345717956E1  -3.051155268531723E1   2.545876684003332E1  
                        -4.229710296614977E1  -1.415047761372512E2  -2.130268429356627E1   1.039884000912759E2  -3.018614388619282E1  -6.869742064232160E1  -5.594075006882715E1  -1.736193537393047E2  
                        -3.198348748379334E1  -4.633192551711348E1  -3.049154808153409E1  -9.639540207257866E1  -1.830885809692603E1   1.038802867173607E2  -4.290125431464266E1  -4.828850585965938E1  
                        -2.982671763833703E1   6.787069828756479E1  -5.604975316226715E1   1.641276225289023E2  -4.251454028211963E1  -2.690895141281293E1  -1.586465134985094E1   4.010447413641476E1  
                        
 6.992993993993994E10   -1.217172125584865E1   6.728506601425553E1  -4.709022708971291E1  -4.834018871417347E1  -3.178828561346150E1  -1.298565681078069E2  -3.031253892679174E1   1.687523883501870E2  
                        -4.656004170367217E1   3.613512308244093  -2.589922143761104E1   1.274462173653581E2  -3.499827808626748E1   8.449204250595749E1  -5.960855778570200E1   1.536144591155227E2  
                        -3.179448401200346E1  -9.527316863341696E1  -3.570995503494736E1   6.599749573976523E1  -1.347358877058753E1   1.031679895922106E2  -4.337672196351539E1   9.596324443672961E1  
                        -2.972607602391438E1  -1.441742524265069E2  -5.771064143325584E1   1.588049508822273E2  -4.191775689765341E1   1.109545750936730E2  -1.530090372123231E1   5.532754654479200E1  
                        
 7.000000000000000E10   -1.155815373477224E1   3.584119354860583E1  -4.355234961293269E1   1.294764871774144E2  -3.332414092137471E1  -1.718779814891264E2  -3.049645179401582E1  -3.942662845958746E1  
                        -4.400111896171596E1  -1.776934689346600E2  -2.268745140674490E1   4.676257491920321E1  -3.163675582452681E1  -9.661349430712417E1  -5.615220022180044E1  -1.775009870110580E2  
                        -3.322819854723321E1  -1.387062336174654E2  -3.116196858088425E1  -1.154708075392650E2  -1.195342558347354E1   4.834886732959428E1  -4.176272913759499E1  -1.042528075814909E2  
                        -3.038764336600767E1   8.794763895894345  -5.664040898249055E1   1.653627241741030E2  -4.241128962125674E1  -9.142131673369079E1  -1.680043182764565E1   6.269152108141687E1  
