#  HZ   S   DB   R     50.00 
! Rohde & Schwarz ZVA67 4Ports - Version 3.50 - 1305.7002k04 SN: 101113
! Date: 2025-12-09 22:28:57
! Measurements: S11 S12 S13 S14 S21 S22 S23 S24 S31 S32 S33 S34 S41 S42 S43 S44 
! 
 1.000000000000000E7    -2.859632047281079E1  -4.017063228883995E1  -2.615175154006714  -2.251470890647601E1  -4.375972923664094E1  -5.805327724437277E1  -5.731793569298169E1   1.054540331126859E2  
                         7.111610438211069E-1  -1.707269573383632E1  -2.598935589714880E1   1.598597979179905E1  -4.042025873818389E1  -9.087251043805536E1  -4.052154511848089E1   5.120776077867845E1  
                        -4.089216363790496E1   5.003727965298642E1  -4.278644877620918E1   1.677440731027546E2  -3.136005094645595E1   4.851208645876528E1  -7.968752551334876E-1  -1.256481036913198E1  
                        -6.263183631311991E1  -5.449705291651657E1  -4.246530393863976E1   1.529890814013752E2  -5.135254971081232E-2  -2.388170206224832E1  -2.971341300379486E1   2.506409524629027  
                        
 8.006006006006005E7    -2.633797231892129E1  -7.275034521129238E1  -4.237374684347699E-1  -1.283579875887236E2  -3.469281286211493E1  -5.664868971870030E1  -4.060272127175060E1   1.349509405603465E2  
                        -4.111831310507441E-1  -1.284023064283318E2  -2.623966217777419E1  -4.660299063695290E1  -4.036590797113415E1   1.403268277373861E2  -3.471337327337508E1  -2.514490443475648E1  
                        -3.450962406241250E1  -5.692656477105511E1  -4.079853117912033E1   1.391158609523800E2  -2.675872124687345E1  -7.345270538728951E1  -3.929334130930081E-1  -1.287733272372401E2  
                        -4.009888202307767E1   1.376430549724491E2  -3.486071942861361E1  -2.333476932715750E1  -4.382344187462073E-1  -1.282299548919383E2  -2.450759820934484E1  -5.291590934563998E1  
                        
 1.501201201201201E8    -2.207795902627438E1   1.735402050618121E2  -7.415666185975974E-1   1.198833730543276E2  -2.968899137224885E1   1.790577550420351E2  -3.502056684067402E1   2.072879762017979E1  
                        -7.926251693739410E-1   1.201546588044292E2  -1.911423999907940E1  -1.222165348220929E2  -3.488837444371631E1   2.050417437499477E1  -2.983595826261302E1  -1.251749057433655E2  
                        -2.976916016175945E1   1.796924835616476E2  -3.464223550010787E1   2.108442556439404E1  -2.239486756025633E1  -1.777791796856661E2  -6.739342959497582E-1   1.203934417747477E2  
                        -3.490568989161422E1   2.187883833360809E1  -2.987673295037930E1  -1.249141283943980E2  -6.509916622060253E-1   1.201448795129339E2  -1.993013366948225E1  -1.300365576459952E2  
                        
 2.201801801801802E8    -1.682041831050604E1   5.112271729347751E1  -9.783938771445369E-1   9.692132285333655  -2.720485567635981E1   5.781770366840455E1  -3.263467225436694E1  -9.550304675322313E1  
                        -9.763815140128617E-1   1.002031621979760E1  -1.748030067172564E1   1.268814437663966E2  -3.247426340909612E1  -9.514372788153402E1  -2.760306942078213E1   1.323938768265245E2  
                        -2.714671897344867E1   5.832121407597878E1  -3.244329903249276E1  -9.527631835153733E1  -1.704563957794423E1   5.483157887284051E1  -9.266876022093513E-1   9.743935857768602  
                        -3.261258535171643E1  -9.482678827940553E1  -2.760672415503491E1   1.322759518654147E2  -9.422909112274875E-1   9.870776401473961  -1.753941544680265E1   1.257638541126377E2  
                        
 2.902402402402402E8    -1.666998753428755E1  -6.827992915571784E1  -1.097714631309531  -1.005498856108992E2  -2.493986770599751E1  -6.104974906915662E1  -3.078552377219902E1   1.557909803021649E2  
                        -1.080502988686275  -1.005703465758643E2  -1.953609696499116E1   2.569621393565468E1  -3.032846579484970E1   1.571991259040324E2  -2.519935529932801E1   3.273652557337144E1  
                        -2.498663873422804E1  -6.108039212604809E1  -3.035182911131357E1   1.572665413918108E2  -1.670220094946271E1  -6.305221697172263E1  -1.011620788020671  -1.004905003854409E2  
                        -3.073270237819127E1   1.562098683905681E2  -2.526361126332245E1   3.283310738576546E1  -1.012694337892748  -1.003591050417717E2  -1.849497506128277E1   1.925698540170455E1  
                        
 3.603003003003002E8    -1.647757645393278E1   1.661583014467393E2  -1.348857915450244   1.488735162786255E2  -2.297737567316865E1   1.765253760671585E2  -2.847119192375349E1   4.121063169620980E1  
                        -1.343481216244695   1.489005113951332E2  -1.632137245564059E1  -6.962767112071458E1  -2.798507689919779E1   4.055630389021152E1  -2.302921104760273E1  -6.883334908528194E1  
                        -2.295841671245582E1   1.765656520667458E2  -2.797922694022485E1   4.058036078469670E1  -1.572122990918145E1   1.721984781921417E2  -1.277810722329469   1.493034252467391E2  
                        -2.848309711587631E1   4.195526038658311E1  -2.298771270583902E1  -6.886357015952672E1  -1.293660873182432   1.494701311872604E2  -1.583237485830044E1  -7.524310542588584E1  
                        
 4.303603603603603E8    -1.257762100424480E1   4.566892329615565E1  -1.615669755850652   3.960502641032541E1  -2.172774006679651E1   5.205604743998231E1  -2.780711301237624E1  -7.815407861377970E1  
                        -1.636626009145900   3.963093659380658E1  -1.283758819399764E1  -1.768944213363389E2  -2.754218376401263E1  -8.058048015694594E1  -2.204307020665307E1  -1.654049658265890E2  
                        -2.175233999284277E1   5.231558624285280E1  -2.759124219707644E1  -8.024382528726208E1  -1.211603646616323E1   4.896849348908852E1  -1.600747064114902   4.008062722524530E1  
                        -2.783646692921878E1  -7.791473685336854E1  -2.204173689420781E1  -1.655096975978984E2  -1.593362252102260   4.003243065264787E1  -1.235795190174953E1  -1.753345166196014E2  
                        
 5.004204204204204E8    -1.195044310630192E1  -7.437146042184537E1  -1.671078962140450  -6.941536336824758E1  -2.085109064176220E1  -7.079178074686558E1  -2.825722280373424E1   1.717953968821246E2  
                        -1.681835462406185  -6.941690985691504E1  -1.279647587274290E1   9.116118930490964E1  -2.810851885393017E1   1.693993998049782E2  -2.096272907365254E1   1.038198362671826E2  
                        -2.088181445798617E1  -7.061841585786678E1  -2.807632224698928E1   1.695592820949671E2  -1.201959199467695E1  -7.513941665323287E1  -1.608302184047704  -6.875748966364608E1  
                        -2.824472219446821E1   1.718497901079094E2  -2.097462241137278E1   1.037759075263131E2  -1.602047050319289  -6.875467808629990E1  -1.259957585219848E1   9.351101874984630E1  
                        
 5.704804804804804E8    -1.433931090610710E1   1.540195709176030E2  -1.753036369091881  -1.794636476817775E2  -2.040963077429771E1   1.673867576519348E2  -2.751623516919269E1   6.694699446278783E1  
                        -1.762414393919528  -1.793923630979285E2  -1.262887099509144E1   8.480735441239764  -2.761433791475710E1   6.356563964527234E1  -2.012492320727007E1   7.193041545567784  
                        -2.040161089234619E1   1.674578195926664E2  -2.766751467420645E1   6.402141617594347E1  -1.404500134015509E1   1.463182992075772E2  -1.694214646487425  -1.789104326967277E2  
                        -2.746864153399373E1   6.722410096635159E1  -2.011963893299743E1   7.344849400945405  -1.652745077110331  -1.788881656190530E2  -1.279460893235819E1   1.363649832525747E1  
                        
 6.405405405405405E8    -1.356800354273959E1   3.616374486337917E1  -1.896513853546843   7.067666526236079E1  -1.983367941826212E1   4.729292108465342E1  -2.659067440690080E1  -4.425575327514698E1  
                        -1.898883861762799   7.078692689258922E1  -1.244221131981433E1  -9.416003247097059E1  -2.691130288547755E1  -4.411322380748884E1  -2.018300812889219E1  -9.349066969538181E1  
                        -1.986000227071018E1   4.731797298546412E1  -2.682973532614427E1  -4.467796342335960E1  -1.325936865071934E1   3.418011617219107E1  -1.812049770882978   7.135011916297458E1  
                        -2.651801190072704E1  -4.387723468817068E1  -2.017742701662380E1  -9.365110108185031E1  -1.781342563442923   7.127728650013624E1  -1.254968455364353E1  -8.972754504383660E1  
                        
 7.106006006006005E8    -1.181374976109530E1  -6.854780091532113E1  -2.022360765635147  -3.892402821307505E1  -1.928403249823631E1  -7.336573454567701E1  -2.611508987267646E1  -1.541525718182862E2  
                        -2.017785267545538  -3.887288738070453E1  -1.369988444878595E1   1.611347617868128E2  -2.598302847130436E1  -1.537966422675561E2  -2.010493666628200E1   1.664492348169829E2  
                        -1.928479183037354E1  -7.333441985916363E1  -2.605931893896548E1  -1.537060042198788E2  -1.203911485088991E1  -6.722210539963909E1  -1.932772716171995  -3.834627427413770E1  
                        -2.603138272767919E1  -1.543398215683078E2  -2.011164068514900E1   1.665076601149010E2  -1.938104319579263  -3.846554162404046E1  -1.374871581970478E1   1.621060068604846E2  
                        
 7.806606606606606E8    -1.236184851332028E1   1.630964161759494E2  -2.223021334292420  -1.483361976167622E2  -1.894025636655139E1   1.666406292164346E2  -2.548548969656857E1   9.343921120756009E1  
                        -2.238565134135402  -1.482370870098021E2  -1.327834692713706E1   7.209276066521512E1  -2.529998387274661E1   9.205865901041260E1  -1.920655278493491E1   6.547287181241427E1  
                        -1.899387251834523E1   1.666631118713480E2  -2.526626240747814E1   9.203593739046315E1  -1.259389016871668E1   1.609604622976844E2  -2.123741465239688  -1.479537189220841E2  
                        -2.551169314019781E1   9.317861102128629E1  -1.918521239228082E1   6.556863547120018E1  -2.099297416302158  -1.477385273169725E2  -1.353875349518326E1   7.195634580774647E1  
                        
 8.507207207207207E8    -1.241703673824511E1   3.242258880958672E1  -2.293914443487465   1.030130359541405E2  -1.834305140514381E1   4.845205974858816E1  -2.558862064993838E1  -1.928361764252257E1  
                        -2.312966710673536   1.030511424139370E2  -1.311367859097139E1  -2.896202908514414E1  -2.564353557000202E1  -2.137379984459034E1  -1.831995290338303E1  -3.205601937789660E1  
                        -1.829868221087430E1   4.851754518629846E1  -2.565629508898653E1  -2.113291506545037E1  -1.180923450279793E1   2.985045541585382E1  -2.227914579117600   1.032197168400430E2  
                        -2.566980979213427E1  -1.888631256617372E1  -1.832463485877941E1  -3.186061292015080E1  -2.237649835934542   1.031580104250783E2  -1.306589034177402E1  -2.589914762996519E1  
                        
 9.207807807807807E8    -1.267454387469747E1  -8.241775537224282E1  -2.274225803434057  -6.559097370724812  -1.736896226766494E1  -7.388192734610220E1  -2.582379735779952E1  -1.263304651048467E2  
                        -2.285971065921355  -6.603582614453383  -1.456490975510460E1  -1.326477047059164E2  -2.593064843879002E1  -1.271014195901911E2  -1.754174817001317E1  -1.250472144281904E2  
                        -1.736575698403707E1  -7.393126808883908E1  -2.595234008314821E1  -1.271705796887357E2  -1.208273348640596E1  -8.292310263055811E1  -2.259783167063713  -6.183893234949942  
                        -2.576758095157122E1  -1.262408126112503E2  -1.753512394942297E1  -1.249520989886065E2  -2.261651860102153  -6.118138125421398  -1.379209794566087E1  -1.289070519463183E2  
                        
 9.908408408408408E8    -1.418769532574408E1   1.576081623358435E2  -2.384724609999537  -1.166215648985639E2  -1.703693726915887E1   1.610096701972069E2  -2.531658807560952E1   1.255960931978661E2  
                        -2.389428809697971  -1.165823810616946E2  -1.411353275280452E1   1.322619805944847E2  -2.534357483055196E1   1.244689655344588E2  -1.717999882808867E1   1.410008172979391E2  
                        -1.707078180127151E1   1.611618504470364E2  -2.525971805100585E1   1.238869824078208E2  -1.320985616199810E1   1.544388845142863E2  -2.378585811144014  -1.159486779031093E2  
                        -2.531766069730016E1   1.253036539773401E2  -1.718415286693668E1   1.409048449998483E2  -2.362635164360472  -1.158558662675408E2  -1.323615833821554E1   1.361260827368642E2  
                        
 1.060900900900901E9    -1.396609712006908E1   3.317053636153656E1  -2.503550832044924   1.340539028669362E2  -1.722644780715579E1   3.881209182174195E1  -2.531272230457615E1   1.616409313364732E1  
                        -2.507433850274814   1.340451536437634E2  -1.245206721596731E1   3.448670312793337E1  -2.557339063971888E1   1.315839863986823E1  -1.759671112091489E1   4.560080359161822E1  
                        -1.721335237678473E1   3.875773421721825E1  -2.563337888916248E1   1.317340141308845E1  -1.286416205144115E1   2.906060216194155E1  -2.462974740256940   1.350477004740946E2  
                        -2.533446013541503E1   1.619706244652740E1  -1.760305238686575E1   4.570006780635968E1  -2.476197977796722   1.350751248612309E2  -1.213604195267243E1   4.165274769610466E1  
                        
 1.130960960960961E9    -1.290318716907841E1  -7.678054806360274E1  -2.554358560224129   2.435625889964423E1  -1.730141435076536E1  -8.174508494352484E1  -2.489485969759153E1  -9.002971181056634E1  
                        -2.564781811350642   2.449102717422986E1  -1.276373868898922E1  -6.230450251817695E1  -2.557553624987498E1  -8.962610065213445E1  -1.817363138142695E1  -5.329903227344623E1  
                        -1.729025979614520E1  -8.162121214469970E1  -2.557688156000223E1  -8.932512301720308E1  -1.271696262111004E1  -8.166203147546084E1  -2.498197526360822   2.532844414301330E1  
                        -2.489422118505878E1  -8.977077831815187E1  -1.815955072774913E1  -5.323480960362291E1  -2.494807638994208   2.546896956465685E1  -1.285487855588062E1  -5.448665187454287E1  
                        
 1.201021021021021E9    -1.300774317973006E1   1.636117006407447E2  -2.743447853497919  -8.546594216528160E1  -1.737150294141229E1   1.576037007480821E2  -2.401387679842616E1   1.580205522636675E2  
                        -2.734974301904384  -8.532714482224768E1  -1.323253459364201E1  -1.503226144034770E2  -2.437765564679307E1   1.607143288975507E2  -1.827425528194109E1  -1.565399486835978E2  
                        -1.734971766254047E1   1.575792350502884E2  -2.429951146691414E1   1.610590110862410E2  -1.262514272148401E1   1.603472494017564E2  -2.657062242684180  -8.443431901050941E1  
                        -2.405642259473956E1   1.583380293731418E2  -1.826347459257631E1  -1.567168931183522E2  -2.658785691653625  -8.446302912357207E1  -1.342295838451048E1  -1.486548270487251E2  
                        
 1.271081081081081E9    -1.185640811754465E1   2.668322910676214E1  -2.938098795916657   1.661229695807446E2  -1.754622261504206E1   3.962373840049170E1  -2.423180446995784E1   4.225799843406409E1  
                        -2.934074463843576   1.660646067980322E2  -1.263491742244789E1   1.168743740743822E2  -2.447691042681301E1   4.566740055945699E1  -1.787719168812664E1   1.020201442866978E2  
                        -1.752323191896949E1   3.941711454905249E1  -2.443277177584939E1   4.459200867631994E1  -1.148329082141552E1   2.795272586387485E1  -2.859573112956013   1.668897109009389E2  
                        -2.421557141696230E1   4.252099221830923E1  -1.789248443712706E1   1.020475224016034E2  -2.862573462510557   1.668758238473350E2  -1.267819127251741E1   1.173295107854935E2  
                        
 1.341141141141141E9    -1.227260263063641E1  -1.009013060856173E2  -2.893836236209723   5.751668547053081E1  -1.701417323393212E1  -7.778103931531778E1  -2.562618833576080E1  -6.627821657767488E1  
                        -2.928945326078576   5.778918493912882E1  -1.375045119502570E1   2.922346980776398E1  -2.547810191097518E1  -6.094418253171983E1  -1.698240866682944E1   7.562178083590990  
                        -1.703578934335918E1  -7.813901082299209E1  -2.553147684747330E1  -6.073447907983243E1  -1.190067345602996E1  -9.537985201098053E1  -2.833709776706086   5.856908789181748E1  
                        -2.552915305177794E1  -6.641860830207403E1  -1.698602426978538E1   7.646736096448483  -2.814864411058769   5.867401015707785E1  -1.357410833079495E1   2.587401010770273E1  
                        
 1.411201201201201E9    -1.515237765785291E1   1.391054509412384E2  -2.854011378493582  -5.217403192516851E1  -1.632146685213252E1   1.596166329716583E2  -2.571567850979121E1  -1.633300127977207E2  
                        -2.857635503328550  -5.192593381592661E1  -1.619808629521855E1  -6.324736843194176E1  -2.504770922558145E1  -1.612219721253609E2  -1.623278373278279E1  -8.541459317326050E1  
                        -1.633268585709110E1   1.596752538655225E2  -2.498662977558946E1  -1.615701565073469E2  -1.523079241148403E1   1.472344314295605E2  -2.755482880523743  -5.135174156914307E1  
                        -2.563426146352553E1  -1.641418645414031E2  -1.624205209403035E1  -8.549377254484251E1  -2.763940422379412  -5.128328816810237E1  -1.672211698454037E1  -7.051195197714981E1  
                        
 1.481261261261261E9    -1.646601281137744E1   2.752088787002656E1  -2.931072307882635  -1.621945391303627E2  -1.612447627995454E1   3.400390424249485E1  -2.425356533195540E1   8.850846688156966E1  
                        -2.916795994197298  -1.621484825416052E2  -1.793777665961431E1   1.704207609218748E2  -2.376655632830924E1   8.895455272719249E1  -1.650213781699292E1   1.799826686709804E2  
                        -1.613606803671811E1   3.404991389301055E1  -2.380109497126981E1   8.903772288941387E1  -1.500395734978936E1   3.342490579235290E1  -2.881897171606716  -1.617033709949544E2  
                        -2.432099855997866E1   8.824048512055779E1  -1.654158655323204E1  -1.799209691795830E2  -2.881211730431302  -1.616380174799795E2  -1.641002696151486E1   1.649024445956106E2  
                        
 1.551321321321321E9    -1.370752392925197E1  -8.136281489198153E1  -3.074414404649827   8.816934026496766E1  -1.663424388133643E1  -9.119069954613276E1  -2.403774502911847E1  -2.387152044882703E1  
                        -3.081086373934024   8.816835642417833E1  -1.396384335304161E1   5.868168989138425E1  -2.350133697622174E1  -2.346976767679507E1  -1.784189301177034E1   8.514042767387032E1  
                        -1.661815305136535E1  -9.138310780916197E1  -2.346963893701375E1  -2.363688879871466E1  -1.242488540569051E1  -7.641266137059662E1  -3.099136266817287   8.909587313912233E1  
                        -2.407706204281534E1  -2.356283656639938E1  -1.784533210887167E1   8.539492789615701E1  -3.092171460422216   8.917388136211845E1  -1.256669562200640E1   5.863585578854769E1  
                        
 1.621381381381381E9    -1.273324008429507E1   1.595371638419909E2  -3.230236999323615  -2.103580242967734E1  -1.757721052115856E1   1.469966022803011E2  -2.393063179536720E1  -1.334309627017120E2  
                        -3.237815414689726  -2.091437460088337E1  -1.195530155952647E1  -2.593380369547423E1  -2.352145238701320E1  -1.351305949050396E2  -1.914540805917670E1  -1.487873032343592E1  
                        -1.757969607999856E1   1.467507708318712E2  -2.354557656634101E1  -1.351116371884952E2  -1.206464604314240E1   1.628134311745640E2  -3.215590870690582  -1.985176071653242E1  
                        -2.396795284029928E1  -1.331211060861172E2  -1.917225770574111E1  -1.472708551725872E1  -3.211115644656265  -1.961600040688601E1  -1.137311616295059E1  -2.441476797332097E1  
                        
 1.691441441441441E9    -1.260717351859221E1   2.915729555654433E1  -3.347345626463742  -1.299636657377964E2  -1.831290491376632E1   2.977708775620478E1  -2.390342508357884E1   1.155483004424635E2  
                        -3.357452037406188  -1.297920247744678E2  -1.196119285965546E1  -1.082382873846035E2  -2.385655424161783E1   1.151298723625013E2  -1.958008957789382E1  -1.206808606554780E2  
                        -1.836214341317362E1   2.938971347147255E1  -2.381557797848017E1   1.151335097408453E2  -1.189689224094619E1   3.064291963239632E1  -3.334337671967311  -1.287414261050344E2  
                        -2.393632795970282E1   1.155375498024457E2  -1.961164112302467E1  -1.205811010480455E2  -3.329404230456983  -1.284968027952801E2  -1.143929163950319E1  -1.057390079850176E2  
                        
 1.761501501501501E9    -1.208235248989953E1  -9.991072013730339E1  -3.422600810587339   1.214195569936654E2  -1.846413194400078E1  -8.629113009904665E1  -2.440420254949959E1   6.131273941382194  
                        -3.416827270662994   1.215609536057472E2  -1.312277719625782E1   1.653068395731668E2  -2.411717640385577E1   7.150962000364414  -1.882821742835560E1   1.377546185286238E2  
                        -1.846890906238009E1  -8.611212662752187E1  -2.412626186621777E1   7.226641005980897  -1.139018755402013E1  -9.443300108928167E1  -3.392380858727924   1.229674553475787E2  
                        -2.443297251458423E1   6.210266110205695  -1.886108834196256E1   1.380327709546259E2  -3.388698576088820   1.230594798896492E2  -1.282759101529477E1   1.637683536874797E2  
                        
 1.831561561561561E9    -1.328793443009637E1   1.316864548329102E2  -3.417686205667628   1.279819815391494E1  -1.813644487351517E1   1.552949816673239E2  -2.496262876651917E1  -9.951582818341116E1  
                        -3.416376460629329   1.290283829085600E1  -1.413310650907289E1   7.461415394295864E1  -2.450290765319101E1  -9.920777536728512E1  -1.782226113038896E1   4.387417008594361E1  
                        -1.810554848655312E1   1.553219613886026E2  -2.445594654760409E1  -9.933532933157740E1  -1.295747399430237E1   1.395039419077280E2  -3.343426292859141   1.419925134390273E1  
                        -2.499890985088463E1  -9.970052067665219E1  -1.780882730371201E1   4.392909524162480E1  -3.343407757734608   1.431383191477250E1  -1.418215583648037E1   7.092713875353218E1  
                        
 1.901621621621621E9    -1.570980041561841E1   1.314984466817503E1  -3.322260492960994  -9.649523013856413E1  -1.770561894107287E1   3.253031633858576E1  -2.496741096656614E1   1.574289972219374E2  
                        -3.325333949556412  -9.644193195575852E1  -1.701271430278135E1  -2.416855974606974E1  -2.451790724066785E1   1.582857896764905E2  -1.752101510588835E1  -4.623775998202837E1  
                        -1.766021310063025E1   3.242571989796653E1  -2.453276272205289E1   1.588643738799313E2  -1.539965382361628E1   1.912153713969015E1  -3.245559779470236  -9.521898608222307E1  
                        -2.504315120237467E1   1.577068337557924E2  -1.754096436460206E1  -4.604098873953529E1  -3.235274022607796  -9.523679432220415E1  -1.664499603522578E1  -3.026422970249294E1  
                        
 1.971681681681682E9    -1.674854240455769E1  -9.860141355199886E1  -3.335004393403816   1.531973793390195E2  -1.776277465691748E1  -9.444901571024761E1  -2.424405921088463E1   5.200906916246313E1  
                        -3.342345391656000   1.533453972168962E2  -1.963024664533819E1  -1.402023235244731E2  -2.332532416193756E1   5.300979693075009E1  -1.834472370849626E1  -1.367613768918413E2  
                        -1.772076870907459E1  -9.459921738917127E1  -2.320079524113674E1   5.285375040632318E1  -1.553062809695851E1  -7.984516331256778E1  -3.313838263252805   1.542068316581226E2  
                        -2.426760974224432E1   5.276443140708496E1  -1.829751971928561E1  -1.366372644269111E2  -3.300902172757583   1.543573035999828E2  -1.849807887234466E1  -1.586283436759314E2  
                        
 2.041741741741742E9    -1.449814972329546E1   1.517694171551708E2  -3.509382076901723   4.358790326179128E1  -1.878651044873240E1   1.374662007098801E2  -2.389492059169268E1  -5.816321354209681E1  
                        -3.520297961407629   4.374164010807645E1  -1.542688759483462E1   9.878903221632793E1  -2.282643570116017E1  -6.054030392560960E1  -2.071028524853928E1   1.287962098390183E2  
                        -1.880422819655898E1   1.372032573797204E2  -2.289460434096585E1  -6.101119085803658E1  -1.306891139546300E1   1.635286491820341E2  -3.565219256697420   4.462152887452713E1  
                        -2.384411653571396E1  -5.765218250608371E1  -2.070769391127184E1   1.288764588695874E2  -3.561698071006509   4.479984619480615E1  -1.345949153820356E1   9.111590250506194E1  
                        
 2.111801801801802E9    -1.341220581267039E1   2.698861582652322E1  -3.622282249109442  -6.514345105261259E1  -2.080379128352265E1   1.510262825231226E1  -2.414581455759154E1  -1.647384964828672E2  
                        -3.622993347888223  -6.510583919633413E1  -1.282440620515902E1   1.217214546485495E1  -2.332577767879450E1  -1.703003065131427E2  -2.374183204109859E1   2.570721435953641E1  
                        -2.081878983529969E1   1.528573171449503E1  -2.332219507637398E1  -1.701253814455084E2  -1.166305695391023E1   3.588289432963536E1  -3.717439539621531  -6.343817760645096E1  
                        -2.412597703105642E1  -1.647655908139404E2  -2.372875942860273E1   2.561342086732996E1  -3.721432106491482  -6.341851618206861E1  -1.090435446812551E1   9.732769234882859  
                        
 2.181861861861862E9    -1.347376856965962E1  -1.047842824053492E2  -3.669844690391606  -1.740445435806764E2  -2.265523328952839E1  -9.807273364000974E1  -2.382640877287580E1   9.029254691040666E1  
                        -3.655780120308969  -1.739945547203083E2  -1.267387453023843E1  -6.233435997773425E1  -2.344111260032377E1   8.463549072521232E1  -2.401115598180062E1  -8.930330738465818E1  
                        -2.263091947119198E1  -9.818590211246584E1  -2.339106620283576E1   8.486951890993701E1  -1.215673329608805E1  -9.712362725615188E1  -3.701321984737504  -1.717828706672163E2  
                        -2.381053388186860E1   9.025864926589296E1  -2.399273241497179E1  -8.906652941071195E1  -3.701482134192754  -1.716360519770308E2  -1.131096277591826E1  -6.190686164943309E1  
                        
 2.251921921921922E9    -1.373203496791388E1   1.269845871494212E2  -3.681771791445539   7.691387945648094E1  -2.282886017230390E1   1.519331986008370E2  -2.331463778778245E1  -1.707483262410566E1  
                        -3.693313837309098   7.698389474919378E1  -1.432949881004589E1  -1.439199232943860E2  -2.300709075431686E1  -2.139774119883120E1  -2.198144529111550E1   1.644725837972956E2  
                        -2.282742986079969E1   1.517025630588329E2  -2.301436294960421E1  -2.159822314001603E1  -1.329421134814035E1   1.348530616732002E2  -3.662714887145633   7.948679834538467E1  
                        -2.332121852060588E1  -1.691415931201696E1  -2.196539929770316E1   1.647634472117512E2  -3.666645440905064   7.955918988337190E1  -1.363714756528018E1  -1.435614271864483E2  
                        
 2.321981981981982E9    -1.463134387518606E1   1.013567361736901E1  -3.669270615711164  -3.222915114537098E1  -2.206679092398738E1   3.157136787744708E1  -2.300335107701320E1  -1.249306197681020E2  
                        -3.682174621651228  -3.182813514475393E1  -1.760577015763574E1   1.046668918860650E2  -2.270599562025728E1  -1.292345352678862E2  -2.113789677770258E1   7.447743268056082E1  
                        -2.210417476089005E1   3.154146262398968E1  -2.272093648519130E1  -1.294600828622400E2  -1.484185782962152E1   1.738845784115429E1  -3.561537440115155  -2.971873026030236E1  
                        -2.302916798474043E1  -1.246467244487703E2  -2.112605405186727E1   7.435156158439227E1  -3.566114845950808  -2.966738946579804E1  -1.764196390522438E1   1.069438220467719E2  
                        
 2.392042042042042E9    -1.654310894145530E1  -1.088659930950522E2  -3.631133418306030  -1.417523574061449E2  -2.227683098664953E1  -9.849423241455698E1  -2.268940190567910E1   1.274228931545276E2  
                        -3.640362161765626  -1.413731173369280E2  -1.765566436831943E1   1.575201561662026  -2.244348925464458E1   1.235354649385871E2  -2.138105688327859E1  -6.552604926975257  
                        -2.233468669836347E1  -9.834830031114876E1  -2.246713204426260E1   1.233603656685369E2  -1.636923396666135E1  -1.033584277672576E2  -3.563488772960976  -1.395119727964880E2  
                        -2.271260471590408E1   1.273947651389323E2  -2.138048827620766E1  -6.630750725830666  -3.559699518545832  -1.393968676746083E2  -1.776107157923679E1   1.228725212026178  
                        
 2.462102102102102E9    -1.658859405668849E1   1.233334922053489E2  -3.704302083042947   1.086998243987017E2  -2.413935801805605E1   1.283412785401881E2  -2.259892557843756E1   1.986008881727198E1  
                        -3.705405911667969   1.089906012410900E2  -1.650000050184927E1  -8.517432605309483E1  -2.227934061512152E1   1.558264620030728E1  -2.356392662285309E1  -8.811760720536097E1  
                        -2.414589872599535E1   1.286626836779140E2  -2.222961603950010E1   1.531609977966836E1  -1.677602001245119E1   1.403611134380058E2  -3.596629532232795   1.108901177037208E2  
                        -2.262522226009020E1   2.006189774431122E1  -2.361938139162005E1  -8.822021981444732E1  -3.607168418875486   1.111626008783790E2  -1.705577269178455E1  -9.418169576607048E1  
                        
 2.532162162162162E9    -1.696247346130499E1   1.496500699942735E1  -3.693854831576778  -4.515656217235591E-1  -2.794620915632518E1  -4.441799264048984  -2.216420689731536E1  -8.473678470236756E1  
                        -3.679467561781812  -1.140547945103021E-1  -1.948791853179692E1   1.724368323556494E2  -2.196656526399759E1  -9.023997273398663E1  -2.966999500372323E1  -1.622042583124486E2  
                        -2.791576572792078E1  -4.261053468545424  -2.195525825306719E1  -9.041859593465929E1  -1.700561726446481E1   3.044394420254874E1  -3.608688267391494   1.369390524464264  
                        -2.218573009298036E1  -8.453061786661353E1  -2.965983644275049E1  -1.624167341513221E2  -3.634661183650023   1.698463457306283  -1.912352907872216E1   1.572078404525735E2  
                        
 2.602222222222222E9    -1.893236402223913E1  -1.093985762963483E2  -3.710850096583445  -1.100128384944505E2  -3.654744660985736E1  -1.295178675144677E2  -2.134567202924661E1   1.683055128853522E2  
                        -3.707258880794468  -1.098710105802506E2  -2.096857021592234E1   6.730732729064485E1  -2.128898210450629E1   1.628930063113763E2  -4.714681258689252E1   1.603839597103885E2  
                        -3.655929197616323E1  -1.303958325299467E2  -2.124800377732320E1   1.627342911200271E2  -1.758264888096747E1  -9.303192634332436E1  -3.640141437098904  -1.081516918985951E2  
                        -2.137062062192127E1   1.685385724488566E2  -4.774172598576678E1   1.609129481849222E2  -3.662268559807213  -1.079626237119576E2  -1.868677964325964E1   5.645251589746793E1  
                        
 2.672282282282282E9    -2.064183354425385E1   1.184138832056242E2  -3.764811244950826   1.402304344356483E2  -3.963655766990971E1  -1.378970421373076E2  -2.058488891327414E1   5.930466090570220E1  
                        -3.736895669103922   1.404380222590810E2  -1.981612007044453E1  -1.750578885922364E1  -2.061975860576919E1   5.444055714497520E1  -3.206951128947893E1  -1.354558820673824E2  
                        -3.961171355855640E1  -1.359901097505681E2  -2.063356853043798E1   5.432812016572989E1  -1.744230687303354E1   1.382414283615396E2  -3.738988730909613   1.425806327710123E2  
                        -2.058466285163162E1   5.944110378495946E1  -3.216407384341112E1  -1.363255523176699E2  -3.744045932783075   1.426447138907352E2  -1.695744421658609E1  -2.731810771525197E1  
                        
 2.742342342342342E9    -2.020033863611933E1   1.472058902524995E1  -3.798655278534318   3.067845818090030E1  -3.303913641285527E1   9.663659304977392E1  -1.995748852098651E1  -5.096219632161899E1  
                        -3.798854688440031   3.100240278457422E1  -2.144528969245604E1  -1.136600094497634E2  -1.995844291629071E1  -5.549085734661497E1  -2.808132460893308E1   1.439512722512856E2  
                        -3.286371494897719E1   9.653148960570117E1  -1.993761814153391E1  -5.569912085552036E1  -1.938694622844757E1   1.984099808574859E1  -3.737231610275549   3.323264288021733E1  
                        -1.994422754057541E1  -5.089579151412212E1  -2.812856842019080E1   1.442369239002400E2  -3.727914355594464   3.350363467899953E1  -1.932311828036108E1  -1.105840618575720E2  
                        
 2.812402402402402E9    -2.270066689952931E1  -8.697300192346781E1  -3.836195428350683  -7.900916936429083E1  -3.534366630971886E1  -4.736886361377824E1  -1.953013160248723E1  -1.615832626291434E2  
                        -3.841370169398904  -7.871114738697467E1  -2.832100515068704E1   1.253435006493530E2  -1.955327029910379E1  -1.656543039767207E2  -3.073594855174538E1   8.371340299305726E1  
                        -3.506624091586296E1  -4.818339743538965E1  -1.953174888740273E1  -1.659967833913752E2  -2.190173613462483E1  -1.014886921251526E2  -3.759761307901002  -7.651217219485585E1  
                        -1.955348738903896E1  -1.612385879858201E2  -3.084950949397166E1   8.312063640736170E1  -3.753754182508167  -7.619201351060838E1  -2.489619173163876E1   1.534328086049200E2  
                        
 2.882462462462462E9    -2.311189711111133E1   1.083027413319248E2  -3.923012614585481   1.713425433422991E2  -4.413403674537062E1   1.227249256637789E1  -1.920659456831887E1   8.862666034757370E1  
                        -3.937390182216616   1.714068393044596E2  -2.126580263254467E1   4.555291606334491E1  -1.920187721906940E1   8.414842864011678E1  -3.316952629575383E1   4.805401282542146E1  
                        -4.418552988759812E1   1.159945444146546E1  -1.915727039831889E1   8.398123299437113E1  -2.171477967281312E1   1.218852513694571E2  -3.834289489733736   1.738734431047899E2  
                        -1.920872683197845E1   8.864491482225174E1  -3.321622933241019E1   4.783548064351115E1  -3.844499846661867   1.740481583768403E2  -2.112405867154974E1   5.029819361206835E1  
                        
 2.952522522522522E9    -2.172425957385349E1  -2.116095652403529E1  -4.019694413713946   6.200113782520540E1  -2.790506737128746E1  -1.479013072940468E2  -1.876892829332958E1  -2.073975025707909E1  
                        -4.029161647205163   6.209788528290333E1  -1.812088107735307E1  -2.650111049490121E1  -1.881417890425246E1  -2.530677107754033E1  -3.046937305566977E1   4.894419224516407E1  
                        -2.789540302305873E1  -1.480439050689183E2  -1.876715904464448E1  -2.548330671093746E1  -2.458134940738461E1  -1.333587841317450E1  -3.900892856916994   6.459824217393349E1  
                        -1.876567800353559E1  -2.072424860120315E1  -3.035012956314143E1   4.918112408355824E1  -3.928297113233583   6.463655577883802E1  -1.877058596502415E1  -2.107777644715112E1  
                        
 3.022582582582583E9    -3.081722010261348E1   1.097098033795860E2  -4.119723261680766  -4.747985574236360E1  -2.282090583124297E1   6.684449604716414E1  -1.834173731539946E1  -1.325362983941051E2  
                        -4.110923765976543  -4.739111516647975E1  -1.770446852574852E1  -6.503980752728401E1  -1.835768128533472E1  -1.373902447181579E2  -2.389013416420303E1  -1.685745596041528E1  
                        -2.280582703439285E1   6.662488240032600E1  -1.837150135791327E1  -1.375778314865096E2  -2.960043164547410E1   1.064459055976644E2  -4.020164163354564  -4.504429031159450E1  
                        -1.834802419992019E1  -1.325948999166120E2  -2.383095504515762E1  -1.723173681161752E1  -4.011397406821988  -4.475799442100146E1  -1.782308597850713E1  -5.402870560335334E1  
                        
 3.092642642642643E9    -2.174611151436140E1  -3.275466048488022E1  -4.179103438387141  -1.569035106822921E2  -2.104193655763708E1  -7.439018053794734E1  -1.827409218044168E1   1.173012044098112E2  
                        -4.207298470998723  -1.564757411613094E2  -1.639179793163062E1  -1.182967173543496E2  -1.850474807819166E1   1.121868271464298E2  -2.252635492068835E1  -8.883511318275092E1  
                        -2.099435260016783E1  -7.475291541547875E1  -1.847860913628868E1   1.118511726656108E2  -2.397672854530038E1  -5.337778921594291E1  -4.081255465919861  -1.540260694882435E2  
                        -1.830152445118039E1   1.173951835823361E2  -2.257294854367158E1  -8.905781969361128E1  -4.095451486517584  -1.538555216579362E2  -1.749332914282065E1  -1.019187015885728E2  
                        
 3.162702702702703E9    -2.439225391824767E1   1.644632712203114E2  -4.213400436257537   9.415560188000711E1  -2.126517359236563E1   1.500675934674533E2  -1.804659160028407E1   6.995691152998493  
                        -4.224340593292596   9.413985316210741E1  -1.967244278179897E1  -1.678807036601316E2  -1.834678707229294E1   3.751882289280211  -2.180247913954862E1  -1.628559961951760E2  
                        -2.126297972409806E1   1.494321027104093E2  -1.835658577180282E1   3.622102584649741  -2.145018785359836E1   1.283709904768344E2  -4.115424690560475   9.641175806734125E1  
                        -1.806538258334141E1   7.169081568554046  -2.181236997374186E1  -1.627038865956890E2  -4.117630593349269   9.670722223408467E1  -1.945684408631529E1  -1.377866747541318E2  
                        
 3.232762762762763E9    -2.080832444091356E1  -3.866818108202547  -4.253756305945874  -1.556073417018655E1  -2.302367335720959E1   2.674958528100734E1  -1.801108268770849E1  -1.017468251961874E2  
                        -4.265316195048354  -1.540488258271829E1  -2.338110289983646E1   1.477068527025086E2  -1.806836757771330E1  -1.050224323402820E2  -2.355891986804260E1   1.059984665511235E2  
                        -2.300601167412357E1   2.662071390262533E1  -1.803409625216746E1  -1.050667248466935E2  -2.046227545353509E1   3.443362093665537E-1  -4.138879965677674  -1.290129106983197E1  
                        -1.803676279894964E1  -1.015494113921533E2  -2.358484371305560E1   1.056248378166455E2  -4.168039960266486  -1.258228273522435E1  -2.428187729448069E1   1.648620223152235E2  
                        
 3.302822822822823E9    -2.369467483542318E1  -8.918797251966548E1  -4.279654069195324  -1.253495540190011E2  -2.398247638122394E1  -7.637222075807446E1  -1.748498382856879E1   1.503188053310109E2  
                        -4.313074435784928  -1.251812976050591E2  -3.395239180338835E1  -1.035806334883818E2  -1.751615003830697E1   1.460373985639283E2  -2.865522233688209E1  -7.827495677618695  
                        -2.396976819510815E1  -7.677600418596707E1  -1.750951881753012E1   1.461785540191227E2  -2.932119540629088E1  -1.149069515309938E2  -4.182473585364094  -1.229106850981140E2  
                        -1.749423967887458E1   1.506004922482513E2  -2.875693884601691E1  -7.564846841150343  -4.181863731610932  -1.226286036757131E2  -3.050506141480581E1  -1.368639191637711E2  
                        
 3.372882882882883E9    -2.922567971243797E1  -1.606407693245017E2  -4.452910660976579   1.243096427784834E2  -2.123254658988222E1   1.790373725106639E2  -1.674096462109413E1   3.887836720555196E1  
                        -4.447513741292566   1.245062812365114E2  -2.258027072637870E1   1.541847993261783E2  -1.686334409531002E1   3.475784011776351E1  -2.549145621748283E1  -1.438133856590552E2  
                        -2.125514388316387E1   1.783489762519515E2  -1.685428988557871E1   3.447024971340947E1  -3.137642969618636E1   1.509720187677051E2  -4.366943126925150   1.267901258878667E2  
                        -1.672097589546485E1   3.904300612481134E1  -2.556038290526774E1  -1.434876373329592E2  -4.342131021725568   1.272232501090596E2  -2.391544489925576E1   1.628781788784776E2  
                        
 3.442942942942943E9    -2.094774781436631E1   6.522590073058628E1  -4.704189283905905   1.455372454727254E1  -1.816949234471085E1   5.491418165265420E1  -1.643766575830119E1  -7.626679850355622E1  
                        -4.713511631704295   1.504195945155717E1  -1.734014913619119E1   7.755874111609562E1  -1.649610012856398E1  -7.969818927037747E1  -2.060611816310625E1   1.116113998173856E2  
                        -1.817096033458834E1   5.469533417541599E1  -1.650322096410574E1  -8.039907238424523E1  -1.903431472090955E1   6.374201627811708E1  -4.628108798148148   1.706259586678762E1  
                        -1.648961270475470E1  -7.583898686200602E1  -2.060375767620493E1   1.113533481440674E2  -4.615783536654801   1.750659166659123E1  -1.705475357686950E1   9.053354428290990E1  
                        
 3.513003003003003E9    -1.518399742338200E1  -5.437968567441157E1  -5.012244708703615  -9.387157275233849E1  -1.656200649153195E1  -7.787601182286807E1  -1.680830065300266E1   1.708102791000366E2  
                        -4.988100865373769  -9.368298332205811E1  -1.315366755900808E1   2.294385002188744  -1.682918063324951E1   1.653286906212255E2  -1.889341829844842E1   2.663858829721312E1  
                        -1.656219750647651E1  -7.761663621776927E1  -1.685424065175332E1   1.651946149782122E2  -1.588492819460014E1  -5.223041515305872E1  -4.877166642168890  -9.114750819975146E1  
                        -1.679879485723217E1   1.714217580406113E2  -1.892264516901277E1   2.679591627653831E1  -4.900555417221956  -9.074153691504918E1  -1.292317211424381E1   1.126928987511482E1  
                        
 3.583063063063063E9    -1.452004030313848E1   1.755425799649701E2  -5.107164365265301   1.583208246664153E2  -1.635074829527816E1   1.486573869913581E2  -1.713158834856213E1   5.910143467988964E1  
                        -5.113827711849379   1.585978390105976E2  -1.160132106837474E1  -6.506389465907085E1  -1.750237617475723E1   5.414549647864453E1  -1.823190405992121E1  -5.157017397634327E1  
                        -1.640445841122278E1   1.483111401087301E2  -1.749450731523447E1   5.384940923504598E1  -1.446243188546243E1   1.609469034406089E2  -5.064943325171124   1.607720204165116E2  
                        -1.710055791894927E1   5.947490496784965E1  -1.817310959652947E1  -5.123179512996511E1  -5.042296898858630   1.608202548813792E2  -1.131785278947978E1  -4.970836186499355E1  
                        
 3.653123123123123E9    -1.366933117282302E1   3.533768511645523E1  -5.043344218226809   5.019200092114758E1  -1.762031682355196E1   1.936942075107170E1  -1.797237969911138E1  -4.960636670266162E1  
                        -5.070063474705759   5.065269665392607E1  -1.235211794276230E1  -1.277828200240957E2  -1.823303192531576E1  -5.315793988467341E1  -1.890367063309580E1  -1.344166590751738E2  
                        -1.762463004737218E1   1.965191263786755E1  -1.822264400088658E1  -5.354269170266088E1  -1.231670015481386E1   2.900029389160583E1  -5.085745422130884   5.346919526445741E1  
                        -1.797127167756272E1  -4.930223580469780E1  -1.886506831163985E1  -1.342493475307339E2  -5.075586491443889   5.378219202197800E1  -1.126965671487256E1  -1.120898953895418E2  
                        
 3.723183183183183E9    -1.421914951605725E1  -9.288725004136724E1  -4.903367796806331  -5.879061763842507E1  -1.961684713311727E1  -9.897935983939044E1  -1.803237270535843E1  -1.519506178238250E2  
                        -4.903997070033126  -5.862926585935799E1  -1.666202974767597E1   1.616625783728976E2  -1.831460082297236E1  -1.563631272243708E2  -2.089936947666793E1   1.342688930218910E2  
                        -1.957739378752178E1  -9.919450963539157E1  -1.829956003619465E1  -1.565728198595820E2  -1.483007230183552E1  -9.947996494863533E1  -4.803266963899990  -5.521005766761758E1  
                        -1.806020519223990E1  -1.515905638167010E2  -2.092988279767697E1   1.347004906770248E2  -4.822303396016664  -5.488440752121962E1  -1.555881722573617E1  -1.760860318365155E2  
                        
 3.793243243243243E9    -1.746831512135059E1   1.618805457485144E2  -4.850469830296325  -1.697765973177532E2  -2.015275321268651E1   1.579407348746453E2  -1.698679042244438E1   1.014169224910181E2  
                        -4.851037588688667  -1.692958144673434E2  -2.723269145843194E1  -1.776049942581645E1  -1.736605622288176E1   9.757069870737523E1  -2.309360750678549E1   1.598646888088809E1  
                        -2.019120739010640E1   1.576087826622971E2  -1.737290950120078E1   9.742128401826848E1  -1.801631966304965E1   1.288510680131133E2  -4.749202688201783  -1.660549353406739E2  
                        -1.698508278610316E1   1.016516257792082E2  -2.303497076632139E1   1.636835473757720E1  -4.723189365969670  -1.658830970769253E2  -3.715606015656719E1   1.035713432930736E2  
                        
 3.863303303303303E9    -1.655806051827409E1   5.372850831894866E1  -5.165008191311536   7.950695175973040E1  -1.777301243765608E1   4.536127013816033E1  -1.626520359204714E1  -1.277175975606948E1  
                        -5.133180603532767   8.016040015778600E1  -1.602336234842498E1  -1.353141401065871E2  -1.651320352924128E1  -1.605841474142539E1  -2.106365862226319E1  -1.111875238333955E2  
                        -1.780643958677417E1   4.533823848589593E1  -1.654938120461150E1  -1.652747952372364E1  -1.638320261609246E1   4.240713553773770E1  -4.982758583699354   8.333216885403608E1  
                        -1.627819272565681E1  -1.261585228111529E1  -2.105562276803626E1  -1.111481726533750E2  -4.988076710458613   8.348929696320261E1  -1.703744040112049E1  -1.243816641774724E2  
                        
 3.933363363363363E9    -1.308353738042906E1  -5.839981393704520E1  -5.500236465391736  -2.889381335107854E1  -1.609024495976252E1  -8.159895506848451E1  -1.634883810596154E1  -1.273670392476484E2  
                        -5.498750784974318  -2.886083565127507E1  -1.250455065165573E1   1.427140372016713E2  -1.655138302385147E1  -1.315338545515843E2  -1.884866246116030E1   1.518902076831027E2  
                        -1.610897553825399E1  -8.167272292479544E1  -1.656122749733650E1  -1.316153686455187E2  -1.425853854040975E1  -6.090720758550783E1  -5.285028853604875  -2.544899894173597E1  
                        -1.637322167405575E1  -1.267351593522613E2  -1.885992420347901E1   1.522759609386571E2  -5.277200459201707  -2.530086127440494E1  -1.327381644069699E1   1.560884576437305E2  
                        
 4.003423423423423E9    -1.193574406189535E1   1.750023137902984E2  -5.814689869343864  -1.366118023458457E2  -1.573986474298252E1   1.485717060070402E2  -1.682544861792957E1   1.196405594653460E2  
                        -5.796079147467748  -1.362346418157971E2  -1.118905926800540E1   6.495438007107354E1  -1.720540548706117E1   1.145241915380628E2  -1.754682918132844E1   6.872078706130097E1  
                        -1.575980460318729E1   1.484586773092171E2  -1.718803186344331E1   1.138601552038040E2  -1.332347833129846E1   1.639204283202579E2  -5.516985958768884  -1.337006647905524E2  
                        -1.679145601837400E1   1.201414193800354E2  -1.749679292786116E1   6.893338772713342E1  -5.475988569085941  -1.335432203127325E2  -1.236874606124049E1   7.814627783207655E1  
                        
 4.073483483483483E9    -1.160377891676490E1   4.680852256909387E1  -5.799621740162980   1.166894944812776E2  -1.618136543550563E1   2.101612684636381E1  -1.769713781713477E1   9.045085293754008  
                        -5.795068781694035   1.168536203529240E2  -1.066101509741001E1  -1.427332006873282E1  -1.824819452422585E1   5.503707786332391  -1.774702176584990E1  -1.018416409489780E1  
                        -1.622168477031246E1   2.095918385248174E1  -1.827791778617931E1   4.842445888152906  -1.127008412752518E1   3.475722011645189E1  -5.665122730420430   1.190984155976473E2  
                        -1.764608233263475E1   9.348155703344730  -1.770335512521339E1  -1.019897588895067E1  -5.632799782815323   1.191680643683930E2  -1.101928066428589E1  -4.170277614470723E-1  
                        
 4.143543543543543E9    -1.178375915960052E1  -7.886332931391797E1  -5.595953006374262   8.884725808709417  -1.712868430902225E1  -1.044027781549159E2  -1.852121777698295E1  -9.572941218436073E1  
                        -5.614592101487736   9.200776893579768  -1.140755846095480E1  -8.848733390369208E1  -1.896199605535027E1  -9.945510706049772E1  -1.882372165831210E1  -8.878045737533056E1  
                        -1.719516473996603E1  -1.045806219270065E2  -1.898106021368833E1  -9.974419507909960E1  -1.198471842800290E1  -8.654165361644539E1  -5.477840871263181   1.181084060986394E1  
                        -1.852900295606627E1  -9.560245136478872E1  -1.882619167900227E1  -8.885392762545727E1  -5.492262797104354   1.204818674777506E1  -1.128787017820478E1  -7.368621706227465E1  
                        
 4.213603603603603E9    -1.362867928393279E1   1.538598897383431E2  -5.360360160284342  -1.004832175249702E2  -1.898590357013842E1   1.357443267257787E2  -1.842183609960463E1   1.619021856497222E2  
                        -5.377982570842733  -1.001447896507314E2  -1.453026945859045E1  -1.653958801796442E2  -1.907221593853036E1   1.586889268211369E2  -2.091185813876635E1   1.798177021466806E2  
                        -1.899501645534666E1   1.352645620587723E2  -1.904472577576004E1   1.583824372796882E2  -1.402660719434168E1   1.335177004807876E2  -5.241055763912211  -9.743186496059614E1  
                        -1.840190621850746E1   1.620598019507608E2  -2.091432493098378E1   1.795368179009658E2  -5.238378842204304  -9.730992389399688E1  -1.394736098895744E1  -1.400120646547721E2  
                        
 4.283663663663663E9    -1.553060371826068E1   4.046876239806224E1  -5.238410343170967   1.489104470688156E2  -2.003385961550576E1   3.067064926735605E1  -1.761421503552407E1   5.618673058478674E1  
                        -5.244273202605715   1.492712768906056E2  -2.467961654279866E1   5.781763049441610E1  -1.811723575050633E1   5.474017278504209E1  -2.360224673584533E1   5.609678415026612E1  
                        -1.998983766506228E1   3.030616842844825E1  -1.810944967917318E1   5.425095961855386E1  -1.462980116665133E1   1.697567881636689E1  -5.129914847211071   1.522313509806158E2  
                        -1.759710003231282E1   5.620354715770819E1  -2.358295973982490E1   5.559314896068217E1  -5.139023564909164   1.525699181315617E2  -2.541623361453560E1   1.270965628593918E2  
                        
 4.353723723723723E9    -1.469516827984200E1  -6.163950206732536E1  -5.435918565597643   3.812902103263149E1  -1.813023299803930E1  -8.110350482200990E1  -1.692559622458156E1  -5.535393928444248E1  
                        -5.424854847302419   3.840841989985002E1  -1.554808976409738E1  -8.993456027805081E1  -1.722809644561861E1  -5.778560644409168E1  -2.175826949084710E1  -6.983957256510247E1  
                        -1.816351928322764E1  -8.101097929351455E1  -1.719891351908169E1  -5.815943462607812E1  -1.518234613562338E1  -6.919675823631569E1  -5.272934568745765   4.191082102258285E1  
                        -1.691213339038090E1  -5.509263944531321E1  -2.172258658152893E1  -6.977205021070137E1  -5.264957351537662   4.208605239768609E1  -1.684777017220706E1  -8.210501448098933E1  
                        
 4.423783783783783E9    -1.393593682176065E1  -1.791729646567302E2  -5.727696879609546  -7.093964492815084E1  -1.668698796549104E1   1.521193128352363E2  -1.664585696810728E1  -1.688849087217953E2  
                        -5.741912037700964  -7.067799904978686E1  -1.232387260089765E1  -1.669753319020345E2  -1.712079398239923E1  -1.728365215151309E2  -1.886832575067616E1  -1.619364057722852E2  
                        -1.671886151334286E1   1.520004962915738E2  -1.714315757586970E1  -1.730571034509237E2  -1.526336021458735E1   1.633028151498846E2  -5.530507395601029  -6.772371951127197E1  
                        -1.670350303324285E1  -1.685100890533458E2  -1.885944757504212E1  -1.618883158464968E2  -5.522326973537856  -6.757543258559890E1  -1.304490950497214E1  -1.512566975084968E2  
                        
 4.493843843843844E9    -1.259339318917087E1   4.471704452301484E1  -5.943441508180698  -1.782325474480202E2  -1.680827094289450E1   2.400287930651007E1  -1.720897005092187E1   7.771948536449132E1  
                        -5.952335301224597  -1.779561078034599E2  -1.165957736874377E1   1.188422899554219E2  -1.803603314926735E1   7.516939293061218E1  -1.766983159105852E1   1.146810921396164E2  
                        -1.685318763838809E1   2.403312809686217E1  -1.804872899736592E1   7.446967126935738E1  -1.219239927154780E1   2.838152897411339E1  -5.759823971932653  -1.753830741056674E2  
                        -1.726091464991217E1   7.803087007628862E1  -1.769561023004863E1   1.145188634321086E2  -5.775312994465730  -1.750873938680270E2  -1.213048538754067E1   1.412847253707802E2  
                        
 4.563903903903904E9    -1.254317416377302E1  -7.703765139507642E1  -5.804962767776732   7.413016272741558E1  -1.721341248643795E1  -1.015246089895723E2  -1.805139914883988E1  -2.971758627920981E1  
                        -5.815256719769814   7.466915239001926E1  -1.276028543124931E1   3.619536500577991E1  -1.878234893622192E1  -3.006024135873027E1  -1.807118187857008E1   3.946617204588274E1  
                        -1.723207514992019E1  -1.015280678845332E2  -1.870068907046964E1  -2.999719708375639E1  -1.227603331425020E1  -8.625679599597738E1  -5.622148263380669   7.743297120343242E1  
                        -1.811798647530429E1  -2.938157188660258E1  -1.807208497070155E1   3.935756394381483E1  -5.642595590391795   7.787797456226566E1  -1.397877673183694E1   5.735654417615945E1  
                        
 4.633963963963964E9    -1.471051684017591E1   1.526407109672394E2  -5.668036531777579  -3.461411086931137E1  -1.821339605187215E1   1.316021507496467E2  -1.830293772261857E1  -1.347333147420253E2  
                        -5.666173559179020  -3.425286656659112E1  -1.363425590217104E1  -4.557734273182272E1  -1.883779811534611E1  -1.343178321394379E2  -1.911600618604383E1  -3.868698130244476E1  
                        -1.818587435117696E1   1.316083458805200E2  -1.889290116912379E1  -1.350400855789147E2  -1.563779001060694E1   1.378804992075510E2  -5.475331241738224  -3.200995686350928E1  
                        -1.831967137324158E1  -1.341752261702420E2  -1.915461970712275E1  -3.889320337428774E1  -5.499288870783087  -3.179524599585066E1  -1.594284906663705E1  -2.898187381517940E1  
                        
 4.704024024024024E9    -1.573008840719777E1   1.813829349524555E1  -5.519381395304369  -1.439982401279945E2  -2.023304939930257E1   9.263978258092058  -1.836437407295681E1   1.199584042848847E2  
                        -5.533354056918997  -1.436283362081134E2  -1.574754523290729E1  -1.278222037112824E2  -1.868596767501358E1   1.207431383496249E2  -2.260561725786114E1  -1.316709860246594E2  
                        -2.025080529101682E1   9.740890701569533  -1.863382826197650E1   1.210985334853074E2  -1.408674209576624E1   1.005817301403169E1  -5.464994652842340  -1.411859100310722E2  
                        -1.838141668385938E1   1.202893679296068E2  -2.263685738834850E1  -1.314439899072832E2  -5.461194116746571  -1.411540016900884E2  -1.622282659053388E1  -1.209344766331620E2  
                        
 4.774084084084084E9    -1.637145273589251E1  -8.873469426779838E1  -5.421743658865747   1.059448691714542E2  -2.216995938936987E1  -9.824527854707786E1  -1.787441471199790E1   1.552227329181584E1  
                        -5.426542737969239   1.062875492857556E2  -2.205503367933942E1   1.328729510178175E2  -1.792915399782973E1   1.535467032016142E1  -2.820851207610721E1   9.852989027477835E1  
                        -2.215321969249263E1  -9.827541505532400E1  -1.792837240023250E1   1.515425138676732E1  -1.517107792623116E1  -8.811943576062188E1  -5.340361802062080   1.092437199888640E2  
                        -1.790879715636461E1   1.587382947464415E1  -2.817874455167387E1   9.883285875826608E1  -5.330521883572095   1.094134398689125E2  -2.121484001111036E1   1.340563580472850E2  
                        
 4.844144144144144E9    -1.895318408958271E1   1.660555704115601E2  -5.456676346802385  -4.493585590756208  -2.109283479908991E1   1.563562884371972E2  -1.705558888849947E1  -9.392425241975178E1  
                        -5.466068856603705  -4.160361507363611  -2.267538592868635E1  -3.291612216235222E1  -1.719332636698262E1  -9.535617943512311E1  -2.366484761093708E1  -2.878016048872312E1  
                        -2.106931080621794E1   1.563588899660455E2  -1.713315862179226E1  -9.548870811405112E1  -1.894177263422212E1   1.565469909553208E2  -5.391964186179910  -1.472455173649752  
                        -1.706695612855303E1  -9.351174474681913E1  -2.366726594868717E1  -2.879481672866372E1  -5.400135969667169  -1.308487418445277  -2.297767415902817E1  -1.702487954744538E1  
                        
 4.914204204204204E9    -1.820493723119929E1   2.894077192817232E1  -5.679693025737719  -1.142060439004177E2  -1.939452336006535E1   3.297416721071134E1  -1.679512212278714E1   1.528359610276015E2  
                        -5.683257868315337  -1.137424666719004E2  -1.699679061800644E1  -1.212121283102450E2  -1.701355421233858E1   1.514961209821420E2  -1.952181509519184E1  -1.216866903040567E2  
                        -1.944459453506132E1   3.307638242689960E1  -1.701501007617748E1   1.512968981538243E2  -1.499583027472779E1   2.218579259320474E1  -5.668725118061476  -1.109041570149265E2  
                        -1.681808845814126E1   1.533455340803263E2  -1.958711872809537E1  -1.218382126861139E2  -5.678068789269925  -1.108517447936099E2  -1.621386668348041E1  -1.046009814111492E2  
                        
 4.984264264264264E9    -1.456909782574918E1  -8.923223449372283E1  -5.796947949456203   1.375720653666861E2  -1.911638297685631E1  -9.724800224975049E1  -1.731953603527667E1   4.221875311252454E1  
                        -5.803427204579160   1.378685498221783E2  -1.466354514848909E1   1.631213874053632E2  -1.754552407251500E1   4.149097966794825E1  -1.898077221482735E1   1.584800559935040E2  
                        -1.912959533021448E1  -9.708358473035705E1  -1.749550143811535E1   4.098590947164616E1  -1.355402198481023E1  -8.876168947543441E1  -5.746824245860696   1.414616304001458E2  
                        -1.731456592544187E1   4.270137897336546E1  -1.901548272749521E1   1.583902909710641E2  -5.780945138221898   1.415341502644289E2  -1.437281118335559E1   1.786888777556083E2  
                        
 5.054324324324324E9    -1.745880097834488E1   1.468111204895799E2  -5.740232464546665   2.881804325610066E1  -1.999833953153016E1   1.323200958975595E2  -1.754640867141319E1  -6.419599268751139E1  
                        -5.744399683933639   2.921838799831802E1  -1.632466174805194E1   9.165979734303572E1  -1.779992052918419E1  -6.522038715231444E1  -1.930702411674170E1   8.825132800796342E1  
                        -2.000692661603434E1   1.323703909739128E2  -1.771747804922776E1  -6.547800657757156E1  -1.703444439736803E1   1.399516864554018E2  -5.637060189217180   3.261331882536673E1  
                        -1.750306476450723E1  -6.361834995296345E1  -1.927757319058982E1   8.831172679064477E1  -5.622757074588165   3.305274056739071E1  -1.712803130480326E1   1.094345319079492E2  
                        
 5.124384384384384E9    -1.875852723159552E1   2.327478066802776  -5.684965212854650  -8.028279002000863E1  -2.187322888795688E1   4.449016602474019  -1.755381563496800E1  -1.711032156178573E2  
                        -5.677877753724520  -7.996266757939519E1  -1.903253986067332E1   4.845918401881189  -1.764619483381215E1  -1.712384329726013E2  -2.137849238536129E1   1.173362800767530E1  
                        -2.193842606284089E1   4.452005834533752  -1.765697008964526E1  -1.715081338290093E2  -1.689861289963124E1   1.274457198465805  -5.592564367205545  -7.670863260963665E1  
                        -1.753334935945555E1  -1.707593320446458E2  -2.130785153038310E1   1.186802488760368E1  -5.596522485097541  -7.658698838164769E1  -2.079917937696491E1   1.688887928953572E1  
                        
 5.194444444444444E9    -1.792401362454422E1  -1.119224655714137E2  -5.656355442407967   1.699233346405258E2  -2.456299389195941E1  -1.202508242550205E2  -1.737604040702225E1   8.260894328959304E1  
                        -5.642505288315540   1.704383125633181E2  -1.960047716829661E1  -1.011222119278229E2  -1.734743275589135E1   8.199761445624537E1  -2.852828550197954E1  -6.469339848462764E1  
                        -2.463200627538600E1  -1.197317509982063E2  -1.731398960948916E1   8.141742817824112E1  -1.658427142721216E1  -9.094169185185059E1  -5.585703514875519   1.736557493354437E2  
                        -1.734004144749867E1   8.296098224997164E1  -2.842106527270995E1  -6.451120655216494E1  -5.626868030674543   1.739565915762782E2  -2.065090120538206E1  -1.152536479555078E2  
                        
 5.264504504504504E9    -1.972166378971989E1   1.480907795782289E2  -5.657868597107587   6.027136118108565E1  -2.899397980274051E1   1.275246834100059E2  -1.688268983220907E1  -2.475620618224309E1  
                        -5.664352081667782   6.064575187623960E1  -2.005947935243293E1   1.734753789916901E2  -1.687197505403858E1  -2.637997327714782E1  -4.257989061226217E1   3.075343916847098E1  
                        -2.900264036342529E1   1.282902367718858E2  -1.686071415595831E1  -2.657452369479923E1  -1.842237501693065E1   1.652466474767088E2  -5.581338967361362   6.391631701534206E1  
                        -1.684811455209473E1  -2.464453257651086E1  -4.310743335441156E1   3.001082990226559E1  -5.595343401971780   6.405670465682077E1  -2.062668235676156E1   1.553073164435899E2  
                        
 5.334564564564564E9    -2.189056695582447E1  -1.254756324893074  -5.744528299350701  -4.963697937022492E1  -2.947541569504381E1   4.789368476218947E1  -1.645731202488502E1  -1.343655032552355E2  
                        -5.732776254791648  -4.916152825922271E1  -2.427433255692040E1   1.058018930588785E2  -1.644755624675689E1  -1.361495732358847E2  -2.586680740411989E1  -2.026204157177241E1  
                        -2.933130395877482E1   4.826682403440255E1  -1.643784888843750E1  -1.363996350506677E2  -1.866506403347315E1   2.271488561474680E1  -5.676073082930209  -4.590279191076839E1  
                        -1.645310529114462E1  -1.342677387113338E2  -2.592754634936875E1  -1.976176780726082E1  -5.712624739392152  -4.571897653894047E1  -2.394437962331410E1   6.536510835694540E1  
                        
 5.404624624624624E9    -1.905983924644371E1  -1.124106934040358E2  -5.806578247764722  -1.588762680160023E2  -2.557501537865930E1  -7.165521883724155E1  -1.627923115041938E1   1.150327831774578E2  
                        -5.808008822037897  -1.584080703196015E2  -2.796216780082225E1  -7.190529815417155E1  -1.618415992146458E1   1.135069000281535E2  -2.230451616511598E1  -9.719656354763461E1  
                        -2.552997120035287E1  -7.166543789254811E1  -1.620974611620418E1   1.130367464571683E2  -1.649688215284338E1  -8.628619014972493E1  -5.785366465830810  -1.548969508299481E2  
                        -1.629273638366561E1   1.152308033145934E2  -2.220980682922879E1  -9.715393781835745E1  -5.807247310248258  -1.547084309300508E2  -2.220923578694314E1  -7.011029872584886E1  
                        
 5.474684684684684E9    -1.938389800948140E1   1.462925728342669E2  -5.867161147876973   9.187241671571873E1  -2.485799082124558E1   1.468050242495847E2  -1.632972898911184E1   5.717106123215244  
                        -5.871700832990152   9.232343529648460E1  -2.027188921310652E1  -1.617964931178041E2  -1.617969675744316E1   3.102363046308103  -2.258694696637004E1  -1.616589488730326E2  
                        -2.491940625742531E1   1.472637863244906E2  -1.619110868215461E1   2.904355007596369  -1.783115620584088E1   1.639387778979227E2  -5.796035588546627   9.609050772151483E1  
                        -1.634562699215600E1   5.836346827757678  -2.250031579661200E1  -1.619261815091579E2  -5.822353487259178   9.664441539241585E1  -1.928228591726601E1  -1.619148949922388E2  
                        
 5.544744744744744E9    -2.378849879646558E1  -6.805861941311206  -5.904716710267609  -1.733381715309193E1  -2.730951614056032E1  -1.739347759722849  -1.631313547143703E1  -1.028274171144931E2  
                        -5.923969786905972  -1.677355103272548E1  -1.929125807925177E1   1.456950834801603E2  -1.622616077349674E1  -1.055927196306176E2  -2.337613122852639E1   1.407861568523532E2  
                        -2.746857975852555E1  -6.903702636446932E-1  -1.619709635613231E1  -1.062396709523717E2  -2.052952300177948E1   2.481396988591200E1  -5.835794910470665  -1.324509842142519E1  
                        -1.632294875397810E1  -1.023834259525667E2  -2.329425088237174E1   1.404905331573976E2  -5.844199840754318  -1.277110602474032E1  -1.978231006615932E1   1.363602701539892E2  
                        
 5.614804804804804E9    -2.328308550746906E1  -1.286464306666418E2  -5.932895703152589  -1.266735845551232E2  -3.363659835879295E1  -1.598814611373066E2  -1.616860576845638E1   1.496600430847460E2  
                        -5.922697089630763  -1.263854914508339E2  -2.254748573243984E1   7.461997723756193E1  -1.616328272947365E1   1.458420898732676E2  -2.637910202101293E1   9.623286423343959E1  
                        -3.385871538478280E1  -1.574197868560156E2  -1.617123976960234E1   1.455267342791859E2  -2.046218079858916E1  -8.442385047052734E1  -5.848727842514951  -1.225603295918674E2  
                        -1.619639300780150E1   1.497879078723213E2  -2.637057448941562E1   9.561344408842093E1  -5.847646578388579  -1.222161457284783E2  -2.508594909763436E1   5.051985382679595E1  
                        
 5.684864864864864E9    -2.476492399853113E1   1.524776062214160E2  -5.940167041498518   1.236533479974543E2  -3.863332470948699E1  -1.028251275816620E1  -1.587384619486530E1   4.105986602289192E1  
                        -5.961526588928963   1.241580879796982E2  -2.838653679234725E1  -3.395301271322586E1  -1.595737016080768E1   3.748430618959115E1  -2.557604866766779E1   6.623845072199974E1  
                        -3.935698658912064E1  -1.154707887067060E1  -1.596403759747222E1   3.717809413055380E1  -2.025704467012663E1  -1.645255829282414E2  -5.877077292632615   1.278181456223690E2  
                        -1.588732047383618E1   4.147845981441481E1  -2.554370003181496E1   6.712403303264070E1  -5.868902405399006   1.279250381718232E2  -2.853154458077468E1  -1.155019426230429E2  
                        
 5.754924924924925E9    -2.669893411176482E1   7.331283691305413E1  -6.018251408420376   1.393459430493492E1  -3.309269744570648E1  -1.775768330990175E2  -1.561654262849603E1  -6.802121515892617E1  
                        -6.007113344483121   1.438576186944164E1  -2.605425368064388E1  -1.338720326457626E2  -1.582344727235376E1  -7.117109532553889E1  -2.431810570234397E1   1.488934931691504E1  
                        -3.299624205022350E1   1.798935386380802E2  -1.578899779289490E1  -7.178798811117619E1  -1.993700356635515E1   7.699817232671310E1  -5.972649664485308   1.828763903788284E1  
                        -1.560943562167391E1  -6.758997223138887E1  -2.426810053958505E1   1.603375563637994E1  -6.026098009188264   1.874225110984714E1  -2.371290168717086E1   1.697079910782622E2  
                        
 5.824984984984984E9    -2.552620714435730E1  -1.183948131492524E2  -6.122721159604923  -9.534531903661389E1  -2.941622667637621E1   4.285876472092799E1  -1.534086553222914E1  -1.774220230904558E2  
                        -6.126033697681082  -9.504050852283311E1  -2.338825669834523E1   1.568272454908229E2  -1.555034292655924E1   1.799022638805296E2  -2.401759748517459E1  -3.706300575961793E1  
                        -2.932403307519588E1   4.162935376610348E1  -1.554528373406778E1   1.797954363466918E2  -1.912290393012885E1  -6.014855756271880E1  -6.074986672835903  -9.089378717972588E1  
                        -1.534002691132509E1  -1.773350423217405E2  -2.394788549051635E1  -3.688057327311683E1  -6.069181197737580  -9.058809437201276E1  -2.481858810739314E1   1.090944535268245E2  
                        
 5.895045045045045E9    -2.477626645794641E1   1.431355119180625E2  -6.193303218012128   1.552566883479666E2  -2.801100516191671E1  -9.449992634922502E1  -1.513122171741394E1   7.260669892418804E1  
                        -6.183349642016156   1.557597557577100E2  -2.715514097627080E1   9.153031497109632E1  -1.526450800304188E1   7.023763509682837E1  -2.641450147136891E1  -9.709483709183320E1  
                        -2.811420730205633E1  -9.570878893102639E1  -1.521729053780766E1   6.984296226803268E1  -2.175773466637015E1  -1.739698622621523E2  -6.108410828978869   1.598659393153850E2  
                        -1.514728181707851E1   7.294168195782441E1  -2.644645873839590E1  -9.748898132453590E1  -6.118045594697494   1.602839066800826E2  -3.542632487964066E1   5.660593275802820E1  
                        
 5.965105105105104E9    -3.071727839166914E1   8.269327648403038E1  -6.239951250633643   4.582771238978940E1  -3.072579996589094E1   1.395491681010466E2  -1.499863856485777E1  -3.731760002830391E1  
                        -6.249071095574026   4.631635450555964E1  -3.823424251312477E1  -5.519804918858980  -1.504121791774695E1  -4.016895923262573E1  -3.260181328686776E1  -1.200412791541653E2  
                        -3.077004896897082E1   1.382095029850931E2  -1.502163375237670E1  -4.045933120003640E1  -2.353069574605929E1   8.581648778618543E1  -6.142041738554689   5.032403642193671E1  
                        -1.499875281567589E1  -3.703014013879245E1  -3.278557925933459E1  -1.202127125264874E2  -6.140344543372089   5.064691577529251E1  -3.456792268326650E1   1.748428387402173E2  
                        
 6.035165165165165E9    -3.170073887465213E1   1.003085192708450E2  -6.337408780309254  -6.383497344437858E1  -3.154330820093344E1   6.646842535295920E1  -1.488281420177155E1  -1.471976938602736E2  
                        -6.330798944925168  -6.330724951251468E1  -2.553750462709295E1  -1.451462356039133E2  -1.495977064165612E1  -1.504255405128037E2  -2.675541293206889E1  -1.187274537233250E2  
                        -3.147500338677045E1   6.664439950788490E1  -1.494831492213539E1  -1.507950675294127E2  -2.263284154956670E1  -1.550690439864570E1  -6.240323702493516  -5.922385870920036E1  
                        -1.486666825909577E1  -1.467305518402268E2  -2.680534875327154E1  -1.175187910287105E2  -6.236034051623197  -5.902608903591807E1  -2.886895829384502E1   1.400048984680283E2  
                        
 6.105225225225225E9    -3.775535896669422E1  -1.128993300341454E2  -6.470199379246575  -1.731607452840637E2  -2.485875889933919E1  -4.588056218569491E1  -1.477044286363273E1   1.027338407431810E2  
                        -6.456793443532685  -1.726268986025926E2  -2.145273485008954E1   1.472210472824392E2  -1.492751919241272E1   9.964387351156630E1  -2.186702035425026E1  -1.713421527134073E2  
                        -2.486134287731847E1  -4.648563948381054E1  -1.493647163902199E1   9.932072969744169E1  -2.190743364810614E1  -1.231648097176836E2  -6.357445313582229  -1.686160130909128E2  
                        -1.476800922631162E1   1.030710649773037E2  -2.181579965079229E1  -1.711761866933752E2  -6.346825993454890  -1.682082276553596E2  -3.068290149190565E1   1.180486285266735E2  
                        
 6.175285285285285E9    -2.146244690493418E1   1.319189649473196E2  -6.583968994584759   7.786966469014725E1  -2.204314369783769E1  -1.794285299692273E2  -1.479606079645503E1  -7.112620024321210  
                        -6.579566250911872   7.844192822692067E1  -2.159475970717005E1   9.489692448112530E1  -1.497198080262835E1  -1.040447969852608E1  -1.910190382919284E1   1.213820535487742E2  
                        -2.200879440303404E1   1.795904604358125E2  -1.494084181639899E1  -1.059218178685418E1  -1.960746976824491E1   1.124561401878952E2  -6.460378971842245   8.233597095764860E1  
                        -1.478961028886507E1  -6.832499161814774  -1.907041617461971E1   1.214309249384024E2  -6.485987850516805   8.268159084739291E1  -3.184505507069884E1   8.867560976658456E1  
                        
 6.245345345345345E9    -2.041443331412422E1   2.401402220555291E1  -6.594102958926594  -3.109410353258406E1  -2.117726053610945E1   5.107096535167341E1  -1.479928091835489E1  -1.158168340416870E2  
                        -6.601345411758123  -3.055084011874207E1  -2.521046410149228E1   2.416849767678215E1  -1.503901334116214E1  -1.188037008093949E2  -1.895627375107331E1   4.785924068387597E1  
                        -2.127121635913898E1   5.014078852347995E1  -1.503567263360735E1  -1.192524573375033E2  -1.842670047395471E1  -3.201599858391411  -6.532771384309061  -2.666182443953017E1  
                        -1.480249300043139E1  -1.155502752929302E2  -1.892906391548537E1   4.780055758148151E1  -6.539771015700636  -2.636466834654166E1  -4.056317502524105E1   4.878322415035669E1  
                        
 6.315405405405405E9    -3.202921985578113E1  -1.459642959880692E2  -6.647280424611173  -1.409274480173123E2  -2.067361324921610E1  -7.248258895162007E1  -1.462164460166108E1   1.355462660031120E2  
                        -6.641337963247831  -1.404956204012548E2  -2.607744776427821E1  -1.438270353019836E2  -1.479719676581692E1   1.331915355704055E2  -2.094385546648482E1  -2.311771134330349E1  
                        -2.073964490303857E1  -7.299275163044506E1  -1.478888668802455E1   1.328581075860366E2  -2.143783078372571E1  -1.220006250843722E2  -6.583194304417488  -1.360510701946217E2  
                        -1.463961197542822E1   1.358779689939218E2  -2.099632001249021E1  -2.375756129182563E1  -6.582376710368780  -1.357730249603175E2  -2.851091555200539E1  -1.420773681281733E2  
                        
 6.385465465465465E9    -2.546622299085287E1   1.218050845813084E2  -6.793414367856976   1.095760770875559E2  -2.011345213453192E1   1.630165769681890E2  -1.435279009064274E1   2.569483028368721E1  
                        -6.786007819159725   1.099867995069395E2  -2.047726263969785E1   1.400305375390593E2  -1.447594858708219E1   2.296294958490750E1  -2.667854778982132E1  -1.072546280714051E2  
                        -2.014679790344168E1   1.631741031865745E2  -1.447434160294588E1   2.255467225832553E1  -2.415908494872035E1   1.222802649929628E2  -6.669062720659141   1.145785783939063E2  
                        -1.434274062901529E1   2.597610121269654E1  -2.676196632983697E1  -1.079548122737500E2  -6.684639196528672   1.150021220307000E2  -2.178374084563501E1   1.522904609399135E2  
                        
 6.455525525525525E9    -2.014150321773237E1   5.544860046320480E1  -6.927896176491206   4.954913049846798E-1  -2.031185726570760E1   3.917318007127176E1  -1.424825366564367E1  -8.514322961541774E1  
                        -6.918924232636059   9.473790717302868E-1  -1.892293495521933E1   6.965797016390773E1  -1.448144592460172E1  -8.809593667391847E1  -3.198212555936238E1   5.142359824896411E1  
                        -2.038176938043333E1   3.902424264545757E1  -1.440273778116393E1  -8.862637958858225E1  -1.963254336492865E1   3.179575091474212E1  -6.799793107624133   5.438196714916065  
                        -1.423162198414842E1  -8.467620482594684E1  -3.193306549668389E1   5.210216090825495E1  -6.838177827376699   5.780105344214036  -1.995433244182145E1   9.073458627773498E1  
                        
 6.525585585585585E9    -2.018401029354983E1  -5.270830009243007E1  -7.002226744998938  -1.085204111344943E2  -2.058145292706265E1  -7.589492557338369E1  -1.419202786984662E1   1.646429998082164E2  
                        -7.018392580476049  -1.081459606934001E2  -2.076532410625509E1  -3.044441144861338E1  -1.445188623304996E1   1.619096304028179E2  -2.218850390392869E1  -4.896900625850542E1  
                        -2.068211261584258E1  -7.616806386581465E1  -1.445822765841183E1   1.615640063082879E2  -1.784536281775232E1  -8.160540515210589E1  -6.908953732785429  -1.037392377842488E2  
                        -1.420706268536268E1   1.650421738864158E2  -2.219922142975899E1  -4.909875060085197E1  -6.897561547025995  -1.034123002574518E2  -2.251736317247629E1   1.801459428359908E1  
                        
 6.595645645645645E9    -1.936722391931442E1   1.508522578550390E2  -7.171405733075148   1.420607732375580E2  -1.947019751512933E1   1.697655158407113E2  -1.423813063366889E1   5.363547528585927E1  
                        -7.167365229471069   1.426021179983549E2  -1.990177826468753E1  -1.296923289405684E2  -1.442725216843783E1   5.159720500870010E1  -1.806827922642011E1  -1.219092154779466E2  
                        -1.949841236791772E1   1.700433663035559E2  -1.443717224394342E1   5.130403173107381E1  -1.772453025981796E1   1.461800327308119E2  -7.053013401883400   1.472596289430949E2  
                        -1.424703556173242E1   5.397554713107614E1  -1.810855640324196E1  -1.223825808629538E2  -7.030972102405794   1.475471983877962E2  -2.688689592383353E1  -9.860990536294464E1  
                        
 6.665705705705705E9    -1.587977773831354E1   3.391946264619129E1  -7.311804994388596   3.394446609125380E1  -1.802846997454000E1   4.673391900433248E1  -1.445101087342156E1  -5.615417374704153E1  
                        -7.307927052592666   3.441385326167054E1  -1.779088376685617E1   1.481149159553435E2  -1.467176772246976E1  -5.806868714253548E1  -1.670717258659384E1   1.614983883489707E2  
                        -1.805662991496762E1   4.731492558324530E1  -1.465942436881840E1  -5.874844735220060E1  -1.676502571513987E1   2.028515322411736E1  -7.114480945181327   3.860402163447026E1  
                        -1.447960661059889E1  -5.574154550627861E1  -1.677222948335858E1   1.613333521925911E2  -7.112465817897198   3.910952936154741E1  -2.382252591588288E1   1.423265563926490E2  
                        
 6.735765765765765E9    -1.832609116399233E1  -8.071595625564483E1  -7.277562545738851  -7.456074875616268E1  -1.735507681474953E1  -7.976165030125954E1  -1.468983249998678E1  -1.646505665374244E2  
                        -7.274895638071150  -7.412864825913447E1  -1.883742715280452E1   6.444644484728437E1  -1.475262644350168E1  -1.658344938630134E2  -1.738909658723748E1   8.753345410098082E1  
                        -1.736565986562495E1  -7.979429766261727E1  -1.478178269392354E1  -1.664104319752171E2  -1.797945984597512E1  -9.472466906755938E1  -7.150820824876271  -7.025282560196594E1  
                        -1.468365356035797E1  -1.642257359630338E2  -1.739748982938461E1   8.776863049056587E1  -7.134753815652617  -6.992022588957568E1  -2.099913826671360E1   5.373772603249520E1  
                        
 6.805825825825826E9    -2.113475687460166E1   1.260966524955798E2  -7.222567804615172   1.758283078653926E2  -1.754413559150614E1   1.551736484424859E2  -1.464311847554013E1   8.770449574586036E1  
                        -7.227662458348959   1.764568179373125E2  -2.242819449207896E1  -3.279306683592513E1  -1.453101642142650E1   8.617001960695650E1  -1.969434380687314E1   1.110959954154875E1  
                        -1.756279168783116E1   1.548527174853837E2  -1.450318313051288E1   8.566286051670393E1  -2.013225750222794E1   1.471659531521755E2  -7.167878783735479  -1.796017184420064E2  
                        -1.465622478238084E1   8.833550442213829E1  -1.966719851084301E1   1.088592429526072E1  -7.165345921999387  -1.793101749707757E2  -2.060559094171526E1  -4.244081215676634E1  
                        
 6.875885885885885E9    -1.844704008928648E1   2.600676270593797E1  -7.303826265535200   6.612529135044974E1  -1.786337206226606E1   3.375389201475960E1  -1.439406726979280E1  -2.099881541222174E1  
                        -7.305163815572024   6.659455779698462E1  -2.153688642584610E1  -1.492564592899967E2  -1.429874390671368E1  -2.438431914859659E1  -2.633873576294993E1  -8.839176073624121E1  
                        -1.793397174539969E1   3.361299605760498E1  -1.429716234317506E1  -2.484415584891174E1  -1.918848444196544E1   3.571255440790222E1  -7.278772182750681   7.075943151048891E1  
                        -1.437958483819574E1  -2.028322030285200E1  -2.644142242593965E1  -8.789500693486372E1  -7.286433684349306   7.120678985490723E1  -1.929270171364559E1  -1.415411192858479E2  
                        
 6.945945945945946E9    -1.809906144904909E1  -6.302651373333896E1  -7.480570322791760  -4.343898827058397E1  -1.791825282805962E1  -8.651559228881592E1  -1.423103053140700E1  -1.314378657277590E2  
                        -7.486991556378477  -4.287399634209635E1  -1.840997345224553E1   1.048592146967361E2  -1.431895026805769E1  -1.348409368510216E2  -2.701080758573149E1   9.113101026029202E1  
                        -1.797761651975172E1  -8.605792150020328E1  -1.427909465928790E1  -1.352223378524657E2  -1.660597027353734E1  -6.952966125077168E1  -7.464065408006033  -3.838174849898137E1  
                        -1.418811977898320E1  -1.307645285412030E2  -2.720419395691167E1   9.098599796210213E1  -7.471091216390062  -3.792205270523672E1  -1.724980228728321E1   1.267775924867425E2  
                        
 7.016006006006005E9    -1.796900413340339E1   1.700257400226808E2  -7.616025341394888  -1.522463727177296E2  -1.802675181854324E1   1.536891831382014E2  -1.420726866856085E1   1.177638116378407E2  
                        -7.619629520850681  -1.517857198184894E2  -1.745729789238789E1   1.991344608795402E1  -1.430927621338989E1   1.151622893166743E2  -2.022227878784945E1  -3.664361837428261  
                        -1.805425406850648E1   1.541751652831151E2  -1.431925954464060E1   1.145327892011493E2  -1.599421267852866E1   1.676420039726545E2  -7.588955285023220  -1.469601249678732E2  
                        -1.421123588254119E1   1.185212103479510E2  -2.025008606912496E1  -3.212932552197873  -7.599271890850400  -1.463933526052740E2  -1.713198253201843E1   4.454226516317118E1  
                        
 7.086066066066066E9    -1.528913628601922E1   2.606977796186154E1  -7.779425799507658   9.902092129708318E1  -1.791271638085497E1   3.640287498720245E1  -1.437674033443495E1   7.552348644375715  
                        -7.792019847197292   9.949792578456574E1  -1.797655653158275E1  -6.370591659380310E1  -1.445140051864158E1   4.657291171521674  -1.688030204847300E1  -8.011853129805847E1  
                        -1.792875199980540E1   3.648637232259689E1  -1.444664290928234E1   4.220812925483800  -1.566209870066308E1   3.112522718447153E1  -7.681877656212327   1.046593323180330E2  
                        -1.438043278519831E1   8.205643225792279  -1.689947378031352E1  -8.015252468406128E1  -7.690942876442118   1.051112337185947E2  -1.920198386920968E1  -4.322447212466735E1  
                        
 7.156126126126125E9    -1.467510757669707E1  -8.396468244062083E1  -7.831274055391317  -9.083688135097676  -1.704846247889174E1  -8.394700160100176E1  -1.460165076887886E1  -1.017362364222900E2  
                        -7.864717125709599  -8.498046452965998  -1.804882060858494E1  -1.631848136980879E2  -1.476385498859473E1  -1.043975012729318E2  -1.616405234923571E1  -1.560051999374931E2  
                        -1.708262854813670E1  -8.413279975631895E1  -1.472228549499140E1  -1.050663096570165E2  -1.529865566893030E1  -9.102817196199210E1  -7.716720575636416  -3.691002899764842  
                        -1.457137542712789E1  -1.012661578151934E2  -1.612382284071329E1  -1.556627107194147E2  -7.724851431402491  -3.190523369584120  -2.085676693429500E1  -1.479323135482391E2  
                        
 7.226186186186186E9    -1.718929741292403E1   1.502967376175475E2  -7.826704971299202  -1.174234527027230E2  -1.668306206106494E1   1.489111425614449E2  -1.488468538180521E1   1.497515051897728E2  
                        -7.813334103452602  -1.170188379217630E2  -1.689146544324060E1   1.081398917096297E2  -1.494750984243322E1   1.478463135473097E2  -1.715365184681300E1   1.304548996440568E2  
                        -1.665462160085804E1   1.488947853942089E2  -1.491764214383221E1   1.471674180837736E2  -1.681028918921894E1   1.508441708426043E2  -7.680012602851665  -1.123153481799579E2  
                        -1.481172250475028E1   1.501526333697656E2  -1.714228672196724E1   1.307649334798770E2  -7.678151771738465  -1.118888840075176E2  -1.889293328035767E1   1.072454870472326E2  
                        
 7.296246246246245E9    -1.711729569654366E1   1.430008427686271E1  -7.734047416231403   1.334497745077281E2  -1.740659545325271E1   2.181148728439002E1  -1.497637955441075E1   4.277012855207117E1  
                        -7.750993659259560   1.337100171093856E2  -1.819237462243224E1   3.567040072928827E1  -1.476975143822173E1   4.031473329517143E1  -2.003043715391137E1   5.450337508496236E1  
                        -1.745938651461840E1   2.201362626969469E1  -1.478591834414646E1   4.019669463788782E1  -1.790453392575362E1   3.091393141783988E1  -7.655440051403323   1.382916738820272E2  
                        -1.500750199053455E1   4.311799079994989E1  -1.997254560711851E1   5.471649471322498E1  -7.673605220767828   1.386882490885076E2  -1.787351661124183E1   2.031672049206796E1  
                        
 7.366306306306306E9    -1.671381072466487E1  -8.829483595435386E1  -7.718514460197330   2.341832603908713E1  -1.878117599642953E1  -9.671152981289781E1  -1.471189316685329E1  -6.403759655333458E1  
                        -7.725315594243920   2.404356914602679E1  -2.405709101990227E1  -6.145523739969781E1  -1.458373134457121E1  -6.871253300789876E1  -2.855102328437357E1  -4.573228382009033E1  
                        -1.880389638227412E1  -9.663187088172538E1  -1.457806586044025E1  -6.903414074101367E1  -1.767258638023592E1  -8.196518295759221E1  -7.648163666269607   2.844644666581042E1  
                        -1.472301413473675E1  -6.376271302603080E1  -2.848546862829128E1  -4.617026817150017E1  -7.653112170554961   2.907204796411723E1  -1.932700378933461E1  -7.070695302435162E1  
                        
 7.436366366366365E9    -1.776580858476959E1   1.731810172138636E2  -7.845386581480460  -8.660939895736691E1  -1.890018703646697E1   1.498599348509253E2  -1.428950796256176E1  -1.740794907961587E2  
                        -7.861143005601799  -8.609141780689905E1  -2.121183709772958E1   1.317726781484531E2  -1.436548928892531E1  -1.785806500891954E2  -2.641990893373171E1   1.194163394613180E2  
                        -1.892210196089618E1   1.500696976201952E2  -1.440577138839716E1  -1.794571146833065E2  -1.654750577167830E1   1.645653244218251E2  -7.803561612752097  -8.139979751678538E1  
                        -1.428880971314215E1  -1.736122691359985E2  -2.623067803877676E1   1.201916357102676E2  -7.808145720948140  -8.087605340297441E1  -2.054800103622090E1   1.769904225572564E2  
                        
 7.506426426426426E9    -1.717569035193762E1   4.487641043670531E1  -8.065893036146200   1.643260883433272E2  -1.829247995264192E1   3.079729805035880E1  -1.426163130719731E1   7.412704912846267E1  
                        -8.102384300349671   1.647196895351878E2  -1.703174335300980E1   4.951099073241797E1  -1.441798528019556E1   7.051655238256082E1  -1.978177331734096E1   3.296755063071507E1  
                        -1.832167922725407E1   3.147490485027111E1  -1.441428212546428E1   7.031358782656218E1  -1.520480492793629E1   4.505319005559630E1  -8.079136468290882   1.701438964018304E2  
                        -1.425102713711286E1   7.453530066046173E1  -1.973982029501577E1   3.341066954403937E1  -8.111529966548513   1.704851274244914E2  -1.793719577281494E1   7.178601408111599E1  
                        
 7.576486486486486E9    -1.432310699700766E1  -8.688075583800953E1  -8.299613532141688   5.596898547655885E1  -1.790782934777128E1  -9.222048486020009E1  -1.459052208322656E1  -3.647143683686463E1  
                        -8.290694454126809   5.661619296893071E1  -1.624783718684036E1  -2.427978685443283E1  -1.464790370095781E1  -4.017716243085002E1  -1.706614435562840E1  -4.169479497190613E1  
                        -1.788721054319896E1  -9.140186702125158E1  -1.462319430595813E1  -4.071480641735446E1  -1.512332529982326E1  -8.185079148082846E1  -8.191941160770945   6.222950929439941E1  
                        -1.455327670432819E1  -3.563146254731350E1  -1.706722639388401E1  -4.141043070486951E1  -8.213258833943661   6.264534159067038E1  -1.678226304944630E1  -1.445761538688872E1  
                        
 7.646546546546546E9    -1.498456034883367E1   1.578846145813374E2  -8.261833522624540  -5.152479921144215E1  -1.780745693947344E1   1.426586717123225E2  -1.489095727444648E1  -1.449635057393670E2  
                        -8.268324032650352  -5.101165207532419E1  -1.662881702857665E1  -1.106054659680717E2  -1.506339663860600E1  -1.489345846323204E2  -1.686968561162282E1  -1.134626973701742E2  
                        -1.772229115525924E1   1.431180152481073E2  -1.504281755866012E1  -1.491349658816270E2  -1.517108909584692E1   1.495462083807623E2  -8.163166909019234  -4.608937641119211E1  
                        -1.486510437595933E1  -1.446802262191924E2  -1.685488285780287E1  -1.136951820324588E2  -8.191769707600832  -4.550658939609549E1  -1.644105046228598E1  -9.636002834048354E1  
                        
 7.716606606606606E9    -1.669246705137515E1   2.780403052765652E1  -8.139272055602907  -1.602416461270923E2  -1.815154746171686E1   1.413692912583074E1  -1.515262611630217E1   1.077985074102815E2  
                        -8.145568506278988  -1.596639083486371E2  -1.711480798135996E1   1.628216878405007E2  -1.527993506560513E1   1.047395977772784E2  -1.822996780490730E1   1.774696496690498E2  
                        -1.814028990375355E1   1.455774607210244E1  -1.523086150736910E1   1.042039366098402E2  -1.571260931428012E1   2.967409347913609E1  -8.083132457597316  -1.546025770325567E2  
                        -1.515666391087611E1   1.081886429119024E2  -1.826219275189219E1   1.771405890916083E2  -8.105037794789698  -1.539227086187659E2  -1.666744249796950E1   1.776775458119321E2  
                        
 7.786666666666666E9    -1.737894561982932E1  -1.026513456075329E2  -8.051577079394281   9.016228631372255E1  -1.978460527586573E1  -1.147862439821751E2  -1.513188363930562E1   1.355153770357252  
                        -8.050983535437384   9.089238403988510E1  -1.766400604556350E1   8.736020294728529E1  -1.513241745267080E1  -2.281910281301762  -2.159959525112573E1   1.068898108136025E2  
                        -1.975133538381450E1  -1.137849189272123E2  -1.510261528382559E1  -2.844214091041954  -1.840242195435253E1  -9.074705648457403E1  -7.965339878985803   9.613409993207431E1  
                        -1.512519219354334E1   2.408228092921762  -2.165747242012247E1   1.068907003710009E2  -7.980690218597203   9.645714391155991E1  -1.775766235164531E1   9.522045150421766E1  
                        
 7.856726726726727E9    -1.747854803579974E1   1.560878986076247E2  -8.021160243601303  -1.970320649189712E1  -2.282879538993088E1   1.283786443181292E2  -1.477585518333068E1  -1.052814475344403E2  
                        -7.996320301099597  -1.911703813732088E1  -2.210373285273524E1   9.577274648941359  -1.482605264734783E1  -1.096271595176267E2  -3.587334165612698E1   4.328894478056555E1  
                        -2.269251700528175E1   1.290181396415289E2  -1.485101196641247E1  -1.100356933912463E2  -1.877597898135682E1   1.475843424932016E2  -7.905396639023444  -1.412899197901427E1  
                        -1.475512813180704E1  -1.048150345137190E2  -3.616483621448837E1   4.279983737762924E1  -7.884043302168576  -1.346735280693651E1  -2.177171617550445E1   1.313021939828574E1  
                        
 7.926786786786786E9    -1.929411289073920E1   5.278900076490242E1  -8.096880594440739  -1.303825008036897E2  -2.316620958031439E1   3.175939559621750E1  -1.426097863821870E1   1.446657361327646E2  
                        -8.104035427947116  -1.295874908106284E2  -3.082203387711733E1   1.058000911891723E2  -1.438096648650372E1   1.404098086424259E2  -2.621054642513600E1   1.291677549928905E2  
                        -2.316257847477667E1   3.126962194394781E1  -1.439182992385871E1   1.398648094644550E2  -1.754782037042193E1   4.654626726895957E1  -8.073294921992126  -1.244644150562286E2  
                        -1.426311668716397E1   1.451467784466072E2  -2.617256250295576E1   1.286554756613743E2  -8.058282172276908  -1.236563853602411E2  -2.972255109155548E1  -1.486464993414304E2  
                        
 7.996846846846847E9    -1.835016641618707E1  -7.052529227998357E1  -8.412023264315550   1.201168355152862E2  -2.058683969132168E1  -8.701428591731957E1  -1.417091836640395E1   3.243510673925044E1  
                        -8.402457534758051   1.207950443807486E2  -1.787185216536728E1   5.454302589636831E1  -1.437120087268163E1   2.890272294961341E1  -2.049261881078363E1   6.181975188860072E1  
                        -2.053400748514683E1  -8.651961739122461E1  -1.433079480003603E1   2.786449861866861E1  -1.772048893239702E1  -6.924293108011906E1  -8.337646352369069   1.261675831994704E2  
                        -1.413304033542987E1   3.310659863660412E1  -2.054619901247861E1   6.192866478876658E1  -8.358003327129218   1.269283400355721E2  -1.934141006180595E1   8.707580704596460E1  
                        
 8.066906906906906E9    -1.522433436347528E1   1.557538676800894E2  -8.687192097441724   1.245085148759495E1  -1.949538018124272E1   1.385464483936931E2  -1.456449342507077E1  -7.833974381918517E1  
                        -8.688332473806380   1.268204112049389E1  -1.412094242746864E1  -3.042787193400351  -1.466513405976610E1  -8.247827131989193E1  -1.849876680398134E1  -6.652610431992886  
                        -1.954638959907505E1   1.392533702396637E2  -1.474323306552678E1  -8.306937977322494E1  -1.629764076521062E1   1.516258090850303E2  -8.566009741699689   1.811002495029603E1  
                        -1.450610766506797E1  -7.803610605449123E1  -1.855976002796420E1  -6.754385787024042  -8.510969124131789   1.900008313980099E1  -1.535685755859136E1   1.619157162537692E1  
                        
 8.136966966966967E9    -1.585993224220305E1   4.059256029574439E1  -8.585130007936545  -9.503941847008834E1  -2.010276280929839E1   1.529927104270121  -1.493755362213156E1   1.739349155633999E2  
                        -8.637267050182658  -9.460764580029240E1  -1.385756908932959E1  -6.530766338830794E1  -1.515635062145240E1   1.700117940771168E2  -1.920513092785251E1  -7.174981847810822E1  
                        -2.004715149806867E1   2.081593043590148  -1.516153057252536E1   1.697218541843650E2  -1.536111498234433E1   3.012522344607188E1  -8.584388752421932  -8.953280879500815E1  
                        -1.494028404825774E1   1.742670909262733E2  -1.918013024610455E1  -7.194396854530839E1  -8.591068192656662  -8.930133930663597E1  -1.381929824838745E1  -5.067713560449950E1  
                        
 8.207027027027026E9    -1.882027472376817E1  -9.649893858279445E1  -8.462392371491491   1.559320537055912E2  -2.190259955360082E1  -1.378959713793363E2  -1.505783470785713E1   6.769364973528116E1  
                        -8.462378931864780   1.564242246621721E2  -1.574624188003000E1  -1.313465260381845E2  -1.522922148987171E1   6.400259738597998E1  -2.109041450638754E1  -1.296712438416537E2  
                        -2.182294277542284E1  -1.372851363392860E2  -1.517433956030883E1   6.329619017446267E1  -1.862391937759879E1  -9.605255661576683E1  -8.458254577944215   1.622717374953617E2  
                        -1.500349174282758E1   6.811245793010309E1  -2.103206200894762E1  -1.294019908458486E2  -8.462338916479490   1.629474313920947E2  -1.455749101907327E1  -1.178508245881710E2  
                        
 8.277087087087087E9    -1.962608944148952E1   1.263458815854557E2  -8.410396856170836   4.598815943963892E1  -2.559656880447947E1   7.751803266358654E1  -1.490385561664860E1  -3.922261780408300E1  
                        -8.422419958718844   4.650992632534598E1  -1.801432087179569E1   1.561396862243918E2  -1.505654704726686E1  -4.356293317633979E1  -2.467388954197164E1   1.779062816204054E2  
                        -2.563341677325795E1   7.892428617186536E1  -1.505721458306992E1  -4.379631497626016E1  -1.996320961099483E1   1.174046335675607E2  -8.351727177848039   5.281351676242374E1  
                        -1.486841814729741E1  -3.885264445378965E1  -2.460179027402830E1   1.779280651580838E2  -8.381543487533595   5.296921453725697E1  -1.669572295737769E1   1.745818466160455E2  
                        
 8.347147147147146E9    -1.987790091868900E1   4.122164099139811E1  -8.429919805690568  -6.388356838482387E1  -3.462735952290634E1  -7.756010408932596E1  -1.449289810786191E1  -1.468191838579333E2  
                        -8.432269859536236  -6.343029174813764E1  -2.207055466763360E1   9.611800735689192E1  -1.468778366885312E1  -1.512298378584803E2  -2.716569288968792E1   1.734486515011898E2  
                        -3.486139802405265E1  -7.356335509532197E1  -1.468559286569164E1  -1.515849610498193E2  -2.038628559416360E1   2.485653232186199E1  -8.345182786802889  -5.721295713465281E1  
                        -1.447957800529718E1  -1.464238972874025E2  -2.715904273686904E1   1.727685207608201E2  -8.371525912134890  -5.683424484534660E1  -2.108524846098570E1   1.113627301480923E2  
                        
 8.417207207207207E9    -2.306279846158762E1  -4.269350762422489E1  -8.570065012366980  -1.740273916534258E2  -3.600856273262522E1  -1.780010915578837E1  -1.411427155792678E1   1.027868669992375E2  
                        -8.559687753463287  -1.733150707133550E2  -2.306392993497428E1   9.413302724265171E1  -1.440526486506702E1   9.866452428670277E1  -2.319785617119414E1   1.343649358821823E2  
                        -3.593389104106743E1  -2.542219700304858E1  -1.439397883318224E1   9.830120191824109E1  -2.200571573796846E1  -4.627823114997919E1  -8.410523842845542  -1.670998070556385E2  
                        -1.411490344137152E1   1.034108038964212E2  -2.321210479308535E1   1.340012374159020E2  -8.444448547629548  -1.667620079318885E2  -2.710029557066330E1   1.142476255711240E2  
                        
 8.487267267267266E9    -2.240337322395156E1   1.673655068126555E2  -8.785427097065519   7.690422446327951E1  -2.869136008456541E1   1.726338401873765E2  -1.403421663734381E1  -7.930085899041669  
                        -8.795079284483194   7.748228776803114E1  -1.784042974855426E1   7.580356202078013E1  -1.436525888328476E1  -1.182737607106042E1  -2.192372699537120E1   8.204407118121942E1  
                        -2.860042056097661E1   1.700553332988542E2  -1.437463969858928E1  -1.190632587233821E1  -2.427698427811801E1   1.677845982493198E2  -8.541889392116563   8.304167914937429E1  
                        -1.405838111392958E1  -7.431126992271635  -2.191406139560236E1   8.250288508797424E1  -8.573889729527675   8.345587884099078E1  -2.028664590614429E1   9.983804380159209E1  
                        
 8.557327327327327E9    -1.700134950725155E1   4.042150619288947E1  -8.947550178678020  -3.172278396994083E1  -2.703796834099541E1   5.579610593976696  -1.423311608460645E1  -1.179979556433758E2  
                        -8.929144050303629  -3.112761152897111E1  -1.465129651478335E1   3.508323709108906E1  -1.454785011460814E1  -1.211110772573223E2  -2.133131794706868E1   2.402938806665087E1  
                        -2.697887553962779E1   4.637902929208180  -1.452548337093425E1  -1.213885504753488E2  -1.711561377129286E1   3.115307429565679E1  -8.773773610270759  -2.600147044822450E1  
                        -1.423106253289251E1  -1.173778928627199E2  -2.136794722404588E1   2.446973685802706E1  -8.806904555199399  -2.553240565107293E1  -1.555081421159864E1   5.561372596022528E1  
                        
 8.627387387387386E9    -2.064166226130461E1  -6.841434696619915E1  -8.953875373257169  -1.402714535840640E2  -2.599881008777522E1  -1.700487815920435E2  -1.428761595279596E1   1.337764693164181E2  
                        -8.933059116270888  -1.398699894852749E2  -1.361345071988064E1  -1.579711868743029E1  -1.449592897389507E1   1.311172379048002E2  -2.408122197084263E1  -2.265267194204710E1  
                        -2.602122496052337E1  -1.694761939141576E2  -1.448133316857157E1   1.309226166982989E2  -1.876856829136606E1  -7.621661960854237E1  -8.937706639025741  -1.345563519252742E2  
                        -1.427578181008149E1   1.343299445850694E2  -2.406823354789674E1  -2.268865615294537E1  -8.946302805374122  -1.341460418556144E2  -1.360464115178599E1  -7.064185141291483E-1  
                        
 8.697447447447447E9    -2.532904086461767E1   1.135382737624317E2  -9.008665901505312   1.106560013577463E2  -2.391220862277091E1   1.563961701699743E1  -1.423525120566005E1   2.497880294397517E1  
                        -9.020318129201593   1.111294710568162E2  -1.360442608544854E1  -6.604545546721421E1  -1.438961185248076E1   2.217036135614371E1  -2.409268698955565E1  -5.396368979383740E1  
                        -2.403166761740259E1   1.638986366335722E1  -1.438092378304573E1   2.193848870427746E1  -2.826497678833754E1   9.869403639571658E1  -9.000481155641722   1.169305712661645E2  
                        -1.423254486177085E1   2.521679648621569E1  -2.400215708173205E1  -5.435141469141691E1  -9.001436576351473   1.173295243691875E2  -1.342042529193260E1  -5.260952210329707E1  
                        
 8.767507507507507E9    -2.679533732791221E1   4.882769630968181  -9.026998372375484   1.774251794116797  -2.189746819846065E1  -1.462575055069331E2  -1.421585380104724E1  -8.328259636888012E1  
                        -9.030919801198193   2.146607772387792  -1.463990899193139E1  -1.191367259497426E2  -1.431769157161761E1  -8.653966935991809E1  -2.324455546721087E1  -9.172165909385397E1  
                        -2.204044149827251E1  -1.452497355727334E2  -1.426311574789200E1  -8.658540181070484E1  -2.436400895885430E1  -1.268738670059785E1  -9.022232705760700   8.473741455692441  
                        -1.420208556535510E1  -8.268685012721203E1  -2.321856897413614E1  -9.139704455271935E1  -9.040793102418975   8.931407045876506  -1.424563384062592E1  -1.081398580973579E2  
                        
 8.837567567567566E9    -2.293813783844628E1  -1.103257326141342E1  -9.082208558367380  -1.070847534642590E2  -2.102966697536165E1   6.158656373088797E1  -1.407865618640638E1   1.675904208927944E2  
                        -9.084208532129416  -1.067362593476729E2  -1.650913010290675E1  -1.690714902760760E2  -1.415832950177541E1   1.641501193523528E2  -2.043011976497911E1  -1.394384648010408E2  
                        -2.119660729307092E1   6.229162469426456E1  -1.412311240151237E1   1.637589366350555E2  -2.339770779638176E1  -1.687775230115672E1  -9.024735934191480  -1.004197738844357E2  
                        -1.402935308697067E1   1.684500129291141E2  -2.041532414352834E1  -1.396767407157254E2  -9.024144147451702  -1.000056586668922E2  -1.648715744007782E1  -1.617063672559382E2  
                        
 8.907627627627626E9    -2.408971406307425E1  -9.635797246372889E1  -9.018314369263887   1.435463901215972E2  -2.166938517634968E1  -8.293644538107061E1  -1.402032526437109E1   5.861809898437448E1  
                        -9.024745034009969   1.440826591856444E2  -1.872269777627269E1   1.391496032248520E2  -1.412001051083160E1   5.556274781556929E1  -2.046596192170317E1   1.573822242749943E2  
                        -2.179670059055205E1  -8.236013826381357E1  -1.411025103406744E1   5.512906135732366E1  -2.215353831841989E1  -9.718271579347442E1  -8.946726277265476   1.502149104198410E2  
                        -1.400783049717235E1   5.945503739511308E1  -2.048424381534178E1   1.580484016316402E2  -8.942463711683855   1.508668322475914E2  -1.847663023938970E1   1.521388444085688E2  
                        
 8.977687687687687E9    -2.275789661872094E1   8.003824436215351E1  -9.047481757836735   3.338221532905227E1  -2.459885287712044E1   1.396819391414109E2  -1.384001130864508E1  -5.005877010222033E1  
                        -9.056540997027097   3.405757638427440E1  -2.089154870146396E1   9.538348946803272E1  -1.392471293665676E1  -5.328074626383695E1  -2.217959605993996E1   1.006393378763616E2  
                        -2.478119045889313E1   1.407146537941697E2  -1.393024269850134E1  -5.359600402521641E1  -2.381583538508511E1   6.694819385667168E1  -8.983971949451632   3.995454483810996E1  
                        -1.385233211486166E1  -4.943259151855821E1  -2.208670325200241E1   1.014270171168136E2  -8.986718097366257   4.055828391015315E1  -2.114346800905204E1   1.180736593443929E2  
                        
 9.047747747747747E9    -2.039980641453812E1  -3.055119793777832E1  -9.184058205395923  -7.671515497686352E1  -3.055039342100732E1   4.501027670151917E1  -1.367518643277852E1  -1.599247060289961E2  
                        -9.198133638503910  -7.610302793218679E1  -1.991954249304006E1   6.722086815968373E1  -1.366354539142380E1  -1.626411443591807E2  -2.654077621442962E1   4.838894843438040E1  
                        -3.091776603851968E1   4.638738161055293E1  -1.364989982085193E1  -1.632320298836531E2  -1.906121416218115E1  -3.958812948487121E1  -9.190986468176410  -7.026596036993990E1  
                        -1.369849286799952E1  -1.589958085834403E2  -2.670069962015560E1   4.798581316991594E1  -9.192502886550118  -6.953012577381331E1  -1.902250913257990E1   9.491381478761275E1  
                        
 9.117807807807808E9    -2.585536890052903E1  -1.148344236268109E2  -9.444049066374491   1.735621314652541E2  -2.429649129051740E1  -3.074392817839522E1  -1.351170371502309E1   8.977785230236866E1  
                        -9.492379490028975   1.740448122502998E2  -1.632858105362849E1   3.652421365005655E1  -1.342027799241925E1   8.589647939953451E1  -2.741721316536792E1   6.750901752958880E1  
                        -2.422245731799920E1  -2.948148631183365E1  -1.343248088138205E1   8.542344790041854E1  -2.522216430942084E1  -9.603557834310641E1  -9.487858125432656  -1.794878376422406E2  
                        -1.350551657115628E1   9.053094096973649E1  -2.740302237736736E1   6.778517773877637E1  -9.518805240044705  -1.789654183269959E2  -1.617187749398728E1   5.693092314074270E1  
                        
 9.187867867867867E9    -3.439325310918211E1   1.725291822589208E2  -9.829442894401877   6.490848262054745E1  -1.910894219561874E1  -1.643092148657217E2  -1.361043571683479E1  -2.123671529033599E1  
                        -9.892016121234601   6.545103402117590E1  -1.272968873738508E1  -8.369918326858620  -1.357943997383284E1  -2.568763481847389E1  -2.203866790438151E1   2.093936879340664E1  
                        -1.902326450584881E1  -1.633524931622297E2  -1.353077465711433E1  -2.587180863789426E1  -3.128959238083657E1  -1.663385779086865E2  -9.829323300879944   7.234738597619683E1  
                        -1.359877561838674E1  -2.066856943507321E1  -2.208689781569479E1   2.151021972058520E1  -9.826708876562455   7.300515646222772E1  -1.357383958612262E1   9.072677194519077  
                        
 9.257927927927927E9    -2.117331020076043E1   2.311114234313008E1  -1.008767274922699E1  -4.227743167752330E1  -1.709485985063474E1   5.585422598182179E1  -1.375915280412620E1  -1.313477890926322E2  
                        -1.015252019918420E1  -4.158083070339379E1  -1.141069338050692E1  -5.582426490340340E1  -1.388949425088632E1  -1.362903552825936E2  -1.923366734766766E1  -3.542027871926429E1  
                        -1.700977233065101E1   5.606548955823944E1  -1.383860068315929E1  -1.366957039644689E2  -1.998422956883361E1   1.247687071636738E1  -9.980656164881639  -3.462574091624110E1  
                        -1.375870173186438E1  -1.307838873133486E2  -1.914260671314959E1  -3.501511329462140E1  -9.973172698470812  -3.398318270304076E1  -1.272880009263348E1  -4.282183450823801E1  
                        
 9.327987987987988E9    -1.667574517765117E1  -8.482184131544473E1  -1.005462060286689E1  -1.486092455208976E2  -1.692930135737317E1  -8.162361540554051E1  -1.412620370452154E1   1.190086560433778E2  
                        -1.006824599797079E1  -1.477969187039626E2  -1.221443938785896E1  -1.080191694479317E2  -1.432547572188590E1   1.153617160004340E2  -1.776329453368063E1  -1.011684270781030E2  
                        -1.692438774805207E1  -8.193095038731617E1  -1.430344844167793E1   1.144624829354265E2  -1.574155436233816E1  -8.707194469707109E1  -9.968764485120365  -1.417181321228150E2  
                        -1.416183102275420E1   1.198899767446156E2  -1.775019903386141E1  -1.009869460092890E2  -9.960215622793028  -1.409062472304046E2  -1.284610314404288E1  -9.354423330468146E1  
                        
 9.398048048048048E9    -1.808618399539575E1   1.524371844646828E2  -9.770681389565771   1.032393801306143E2  -1.781914097837631E1   1.449873241644098E2  -1.440405433045012E1   1.308275078408809E1  
                        -9.762316309841159   1.038455054011036E2  -1.469451616116510E1  -1.683598468567161E2  -1.454072022153750E1   9.183878562757665  -1.886446881539970E1  -1.688848211160209E2  
                        -1.792300549692969E1   1.452857899607496E2  -1.449871101541495E1   8.664733225496907  -1.755293225802827E1   1.524801129576895E2  -9.656512715538687   1.101686782205764E2  
                        -1.439193545238926E1   1.376264491152912E1  -1.881347165385974E1  -1.688841414669262E2  -9.665227301286819   1.107620165427133E2  -1.409468454764438E1  -1.493959576990749E2  
                        
 9.468108108108107E9    -1.813558887443599E1   1.201915756273523E1  -9.553477987628479  -6.983695759748610  -2.002680554577145E1   1.773577582755313E1  -1.411387462125802E1  -9.331457628059440E1  
                        -9.578218399181505  -6.214375464842979  -1.918331391672145E1   1.249455794752354E2  -1.424877603389611E1  -9.744641830949290E1  -2.194269786406066E1   1.238265154723558E2  
                        -2.013191750237070E1   1.904957305144828E1  -1.422173607834253E1  -9.824287920811537E1  -1.705753126406449E1   2.480226386607038  -9.487162107007730  -8.578605266126270E-2  
                        -1.412006325666807E1  -9.267851642646045E1  -2.196334112482795E1   1.231959563253038E2  -9.521418068608117   4.356703227296803E-1  -1.783900971478984E1   1.575567274405226E2  
                        
 9.538168168168167E9    -1.828615146413368E1  -9.306355303645218E1  -9.574104522527449  -1.181563316506288E2  -2.283192121382519E1  -8.819196402849343E1  -1.366057481086294E1   1.573384958385431E2  
                        -9.594058634543588  -1.173760117763380E2  -2.932386047026210E1   9.361707857995381E1  -1.376481958315327E1   1.534512998025355E2  -3.505850800842659E1   4.591558944151539E1  
                        -2.268338866916995E1  -8.624011488747084E1  -1.371047565918503E1   1.529043214195056E2  -1.662212894845246E1  -1.022337603636708E2  -9.550175381493054  -1.108313633094380E2  
                        -1.364360468925482E1   1.582494743767333E2  -3.516502764672089E1   4.571348623146572E1  -9.570329178319938  -1.101823843022438E2  -2.333578674042427E1   1.164273990221598E2  
                        
 9.608228228228228E9    -1.893140268564996E1   1.724915225602621E2  -9.914649760092834   1.315486128285147E2  -2.080680622150822E1   1.749124713707817E2  -1.339204635855512E1   4.587057482961572E1  
                        -9.922419512711771   1.324444139041687E2  -2.043737239614924E1   1.170161533652764E2  -1.342215208788407E1   4.128398299308793E1  -2.413788799067450E1   1.463642618454371E2  
                        -2.065959004888235E1   1.755700944728462E2  -1.340259319054296E1   4.069914796295518E1  -1.876413324196060E1   1.670465949791442E2  -9.827539497995428   1.391098494148392E2  
                        -1.341738216192267E1   4.649791933317032E1  -2.416721925417465E1   1.469025785309840E2  -9.865188733965296   1.398605419670558E2  -2.122940558389566E1   1.196724522888038E2  
                        
 9.678288288288288E9    -1.785000559758177E1   5.021087574384936E1  -1.034467682580646E1   2.323797397657830E1  -1.764949865699649E1   5.220891397661648E1  -1.348542138743551E1  -6.605093854692900E1  
                        -1.035958317884478E1   2.393344512896601E1  -1.439499533239094E1   5.771188612469517E1  -1.356533910853791E1  -7.180219668440066E1  -1.926431434432880E1   7.507123659822898E1  
                        -1.759427181645888E1   5.246470806637665E1  -1.357892836524265E1  -7.219214299090677E1  -1.862218002816485E1   4.142351893146945E1  -1.020247094988052E1   3.052467033065479E1  
                        -1.350740781782640E1  -6.551437142531441E1  -1.921767262004437E1   7.455062717241623E1  -1.021804375389208E1   3.104022929479851E1  -1.557351278412314E1   6.976760035939768E1  
                        
 9.748348348348347E9    -1.527167894697482E1  -7.037261891849408E1  -1.056693214740983E1  -8.316880700917136E1  -1.630131365330097E1  -8.057433561574668E1  -1.384561758044607E1  -1.773809158026414E2  
                        -1.059815456538511E1  -8.252464335212331E1  -1.195199717740118E1  -2.708020814802419  -1.422603074873626E1   1.772668649790444E2  -1.732501963861333E1   7.264479193110282  
                        -1.624697772792538E1  -8.003722035414478E1  -1.420552824507968E1   1.767167732314842E2  -1.479730999638939E1  -8.047457490759234E1  -1.045860184762052E1  -7.652589871936470E1  
                        -1.390901986254276E1  -1.767667295570420E2  -1.733875940847081E1   7.237294529711630  -1.045609259948038E1  -7.558555846349947E1  -1.278535894647708E1   1.482141221369205E1  
                        
 9.818408408408407E9    -1.453185557665762E1   1.729589714441316E2  -1.050412698866935E1   1.704605689549116E2  -1.627197999049608E1   1.464294885867982E2  -1.457446579448578E1   7.410261891016006E1  
                        -1.048369239758953E1   1.708852352838684E2  -1.134063830874021E1  -5.964516039192964E1  -1.493854085526452E1   6.992210663132391E1  -1.724234161402503E1  -6.149741379265766E1  
                        -1.615722281067913E1   1.468900615846824E2  -1.491661973828811E1   6.912652672464782E1  -1.432854467376419E1   1.644614269916792E2  -1.040408174360627E1   1.775926836177996E2  
                        -1.455582967049920E1   7.502499795594626E1  -1.724105818684221E1  -6.109976658655139E1  -1.039184962036246E1   1.782548590429638E2  -1.166629512879676E1  -3.880296954082498E1  
                        
 9.888468468468468E9    -1.550323524702476E1   4.402329461716849E1  -1.009131045275232E1   6.285536160895228E1  -1.731940490726554E1   1.429368749106922E1  -1.481611328891075E1  -3.073491010439804E1  
                        -1.014949786183545E1   6.314845262810606E1  -1.248696792363976E1  -1.181727074536052E2  -1.521506310839604E1  -3.392555273710983E1  -1.896676215012792E1  -1.260357873370682E2  
                        -1.723752806390625E1   1.456309891268027E1  -1.522073054300663E1  -3.476540401511191E1  -1.505684400134052E1   3.278676848376617E1  -1.010537150559084E1   6.968192132378449E1  
                        -1.479577545386803E1  -3.012646036010554E1  -1.894769180735588E1  -1.266191974886297E2  -1.005965557487185E1   7.030233326106594E1  -1.250043172639717E1  -9.447013672579659E1  
                        
 9.958528528528528E9    -1.565319693913049E1  -7.940395936748421E1  -9.750127482450008  -4.766945469445518E1  -1.995430077198624E1  -1.110658440034329E2  -1.462914957920659E1  -1.361427536261760E2  
                        -9.755072886279168  -4.684229129993628E1  -1.682485198284730E1  -1.731842189506133E2  -1.489416880472673E1  -1.390911718389260E2  -2.258699742047235E1   1.642117128607719E2  
                        -1.990293516234405E1  -1.107307643594273E2  -1.484563970285417E1  -1.397022309415642E2  -1.511574898343121E1  -9.350504534166498E1  -9.807862683122698  -3.975508096681121E1  
                        -1.456215393938483E1  -1.354810185110841E2  -2.260813085162609E1   1.646308629216051E2  -9.820357499680755  -3.945650051531524E1  -1.552657550206113E1  -1.480613628299554E2  
                        
 1.002858858858859E10   -1.744193498077545E1   1.742709477991304E2  -9.746840782540525  -1.592330066239433E2  -2.261882221124467E1   1.450208311921190E2  -1.409298450253026E1   1.157857782325334E2  
                        -9.723427850408983  -1.582809921252856E2  -2.994552077940033E1  -1.762657468375552E2  -1.422704134445905E1   1.125683567806385E2  -4.752806686639224E1   5.405878846813743E1  
                        -2.245279525453524E1   1.465023636689550E2  -1.421956273783035E1   1.118545985384086E2  -1.763535379931613E1   1.572298381919401E2  -9.715032366790652  -1.506189049675504E2  
                        -1.405455634149436E1   1.165849839572599E2  -4.711817756464178E1   6.775255183813566E1  -9.702581439706162  -1.503979024100248E2  -2.359137753665198E1   1.721935822550527E2  
                        
 1.009864864864865E10   -1.674530271881680E1   6.840782379664375E1  -1.003166241617279E1   9.074056009844709E1  -2.093321276008187E1   4.404226581446022E1  -1.374268612863862E1   5.221380461302251  
                        -1.004179059970858E1   9.146304453085854E1  -1.926019504826078E1  -1.604739798661387E2  -1.387003116030809E1   1.341147541289887  -2.316403107295368E1  -1.691202348546633E2  
                        -2.068660036580962E1   4.463774757840221E1  -1.386794063512490E1   5.049965276802549E-1  -1.782363129530440E1   4.663803892113238E1  -9.859275228709500   9.875973676175298E1  
                        -1.374773808286975E1   5.638086006241903  -2.310808118117734E1  -1.688650018696871E2  -9.876931247130109   9.928041523412645E1  -2.344456475824934E1  -1.705505326848559E2  
                        
 1.016870870870871E10   -1.574482528178043E1  -5.382398312846849E1  -1.029233457787369E1  -1.806924718572264E1  -1.875299458349506E1  -7.685799515140749E1  -1.373207731798070E1  -1.063885099277838E2  
                        -1.032192013527545E1  -1.709163819200888E1  -1.634921492510381E1   1.307931185924810E2  -1.394941880388242E1  -1.104250724432942E2  -1.871769993488947E1   1.214252850332237E2  
                        -1.854345516166790E1  -7.725619574946668E1  -1.389670094470579E1  -1.114767058971053E2  -1.609566669681701E1  -6.657274932203018E1  -1.013579991764360E1  -1.016227017775172E1  
                        -1.377091638373751E1  -1.060266015493064E2  -1.875286759154264E1   1.211854339578130E2  -1.016524673870672E1  -9.864298695712053  -1.830095606673612E1   1.381808177735877E2  
                        
 1.023876876876877E10   -1.603289436688846E1  -1.788055064843896E2  -1.047555446853059E1  -1.254096063902773E2  -1.770235558713852E1   1.542549593586500E2  -1.404948761457025E1   1.430387632339526E2  
                        -1.048044978475652E1  -1.245877477248457E2  -1.464793019333749E1   5.420096581392789E1  -1.434154544655289E1   1.389945222732461E2  -1.720616438479746E1   5.269230640110692E1  
                        -1.754861181956996E1   1.541369506544215E2  -1.435406388806858E1   1.380427797361737E2  -1.621622156092500E1   1.713167594664408E2  -1.032136911034886E1  -1.181645466489796E2  
                        -1.409228222710387E1   1.434410495686535E2  -1.723970663600841E1   5.277757145746095E1  -1.032436483939973E1  -1.175302896591028E2  -1.585705625094751E1   7.146197730775702E1  
                        
 1.030882882882883E10   -1.541263189009816E1   5.414016957838563E1  -1.038225126309806E1   1.274441316120350E2  -1.770979450280327E1   2.341949212118874E1  -1.452986306697213E1   3.511615829522102E1  
                        -1.041483105771081E1   1.281781876872064E2  -1.328899497376417E1  -1.215396424656660E1  -1.486581414190141E1   3.112316533704747E1  -1.770710667519900E1  -1.470480920349645E1  
                        -1.754949173376680E1   2.319552374634271E1  -1.485090282796247E1   3.062243445377271E1  -1.540105341985415E1   3.971073605422473E1  -1.026371461392689E1   1.344590071674075E2  
                        -1.451737284623919E1   3.539365038996009E1  -1.769823616368131E1  -1.434483678203295E1  -1.026578983895199E1   1.348384930905394E2  -1.423138714827348E1   7.909653017015775  
                        
 1.037888888888889E10   -1.713989248185647E1  -6.461502471762982E1  -1.007104565941032E1   1.888733641910757E1  -1.879581583957631E1  -1.086315975692991E2  -1.460379065601944E1  -7.088813584756447E1  
                        -1.011331118113023E1   1.980410905726487E1  -1.446659432572277E1  -7.273789104331358E1  -1.494765925049115E1  -7.362589641008978E1  -1.967872235504946E1  -7.502632082472249E1  
                        -1.867807687734073E1  -1.085166892039079E2  -1.491224774431969E1  -7.447102344686984E1  -1.625947025346643E1  -7.850180571526302E1  -1.010885873120350E1   2.570200418341760E1  
                        -1.465399064500588E1  -7.068812804769412E1  -1.963794366753332E1  -7.514817362048851E1  -1.009494101627577E1   2.632285856639483E1  -1.469375525233862E1  -4.941391069644772E1  
                        
 1.044894894894895E10   -2.047247998183306E1  -1.789156248757861E2  -9.851998652454141  -9.128643505504935E1  -2.165357114867787E1   1.259579449579462E2  -1.441870779903181E1  -1.773952361612794E2  
                        -9.872399136708125  -9.068930846978559E1  -1.875465778354973E1  -1.279475251731759E2  -1.464595583074256E1  -1.798297212044130E2  -2.396283067949259E1  -1.354518601226916E2  
                        -2.145927650910793E1   1.255036382355699E2  -1.465058631257070E1   1.793518115154133E2  -2.020082766980901E1   1.537301872482300E2  -9.896702576046499  -8.359824335786698E1  
                        -1.439096522036294E1  -1.770947621748520E2  -2.390106111598577E1  -1.355506075790595E2  -9.884866223747702  -8.308538911747590E1  -1.725415676122460E1  -9.889759055464178E1  
                        
 1.051900900900901E10   -2.099124934394668E1   5.218865070133779E1  -9.837826589977736   1.577828022650246E2  -2.478152066270035E1   2.326973965487442E1  -1.404378403200165E1   7.427781012572385E1  
                        -9.832210928867779   1.584473664205133E2  -3.196965826269444E1  -1.170506476306168E2  -1.413919810841367E1   7.160600520732665E1  -3.275497720319376E1  -1.324984139064466E2  
                        -2.449876991283262E1   2.224537345127132E1  -1.414725135113830E1   7.110806169104573E1  -2.090461616370567E1   3.639845753355108E1  -9.856839814231487   1.656424713194422E2  
                        -1.401926460129786E1   7.502332935792211E1  -3.279552910323697E1  -1.331759753536977E2  -9.884554351358489   1.663316694973059E2  -2.313603405974950E1  -1.146109794220014E2  
                        
 1.058906906906907E10   -1.821315152825608E1  -3.841184484203664E1  -1.000639221990382E1   4.764497774156764E1  -2.325817193599521E1  -7.661843657145234E1  -1.379535413345228E1  -3.551644360372128E1  
                        -9.997945978127126   4.843297580568820E1  -2.204833676953906E1  -1.039129387512890E2  -1.385544446877526E1  -3.870556455076591E1  -2.400873171558759E1  -1.411712348996016E2  
                        -2.304200911738399E1  -7.739778855693650E1  -1.384217479122458E1  -3.931849986678832E1  -1.963976223840387E1  -4.758368452981106E1  -9.987136104027092   5.570462223432310E1  
                        -1.379455658762791E1  -3.463468490583170E1  -2.408715587032375E1  -1.402702826934001E2  -1.000691433800403E1   5.633594508381992E1  -2.156536012733701E1  -1.145615733749796E2  
                        
 1.065912912912913E10   -2.164815768312959E1  -1.670548815734864E2  -1.014784486989072E1  -6.180192486651251E1  -2.136197755121486E1   1.615677056563636E2  -1.376102189794343E1  -1.460146226225570E2  
                        -1.016261339865756E1  -6.072320266737612E1  -1.924492218955127E1  -1.656237247513248E2  -1.381649629201362E1  -1.491360858654307E2  -2.011365739364882E1   1.650428121051037E2  
                        -2.122904871120861E1   1.603005840471421E2  -1.379824832975829E1  -1.500043734472069E2  -2.170801644575437E1  -1.752934129089858E2  -1.016362079732011E1  -5.360479225153875E1  
                        -1.376419332890175E1  -1.451731141973232E2  -2.004916792637812E1   1.646529189123891E2  -1.015770786213544E1  -5.290511959654828E1  -1.965311237088878E1  -1.603432863046449E2  
                        
 1.072918918918919E10   -2.028333945196759E1   3.579440529486278E1  -1.025343235603348E1  -1.704310347011922E2  -2.108082973475552E1   3.412978856218930E1  -1.390659091992018E1   1.048597723728840E2  
                        -1.025156648278820E1  -1.692525208055215E2  -1.985702494670499E1   1.274926795078845E2  -1.396016575921148E1   1.011679843199181E2  -1.843039672284847E1   1.031405904215521E2  
                        -2.088157246800328E1   3.280405620779992E1  -1.393352067855683E1   1.006045268451714E2  -1.932347844686287E1   3.557702808239854E1  -1.020356491936682E1  -1.619742070946160E2  
                        -1.388720567075501E1   1.054960520824382E2  -1.835932194254402E1   1.029370716437537E2  -1.025251966534681E1  -1.613172383985605E2  -2.111247002057732E1   1.371714671314366E2  
                        
 1.079924924924925E10   -1.948391052591957E1  -7.505131841550988E1  -1.019857140813255E1   8.132269908970793E1  -2.142657732742018E1  -9.223167469435019E1  -1.398445852154761E1  -2.924472927842869  
                        -1.019341469573189E1   8.229676719988458E1  -2.147028800370142E1   4.823827407917764E1  -1.402570334876751E1  -6.954269209755644  -1.858779166842802E1   4.076078469743592E1  
                        -2.134442382181095E1  -9.396078379726913E1  -1.401774468938367E1  -7.762676289404519  -1.942599242044398E1  -7.288841788336841E1  -1.017317576967054E1   8.921857285581152E1  
                        -1.396078033246947E1  -2.393091773642724  -1.855866685587826E1   4.089127383094101E1  -1.019629307605280E1   8.962170815438422E1  -2.286804269475902E1   4.933410627471488E1  
                        
 1.086930930930931E10   -3.977467070937387E1  -1.764739507060069E2  -1.011162112899484E1  -2.832284253055107E1  -2.257203218954848E1   1.396432541525006E2  -1.383566372796888E1  -1.110013741920947E2  
                        -1.013687969375569E1  -2.728962595991889E1  -2.455816584775752E1  -3.163118196202366E1  -1.394692359194995E1  -1.152144885639599E2  -1.975589828376437E1  -1.470529960438082E1  
                        -2.244366734569256E1   1.379322935281698E2  -1.392046832924372E1  -1.158434059082417E2  -2.845754902146943E1   1.534467593964260E2  -1.017259090294676E1  -2.046323647088569E1  
                        -1.385293029030964E1  -1.107364585414608E2  -1.980632277717091E1  -1.515766586340209E1  -1.015888421731393E1  -1.982777941938071E1  -2.312823429642908E1  -2.556428945480423E1  
                        
 1.093936936936937E10   -2.749528831042791E1  -2.470696855540819E1  -1.009918563226940E1  -1.380512640188590E2  -2.523967304560358E1   1.468522013225848E1  -1.365461011109469E1   1.403200568948084E2  
                        -1.012880795425777E1  -1.372823307890511E2  -2.592421317877080E1  -1.103908005631043E2  -1.380901158072886E1   1.361182771745788E2  -2.261318152842588E1  -6.761700322666151E1  
                        -2.511190148853290E1   1.146663119529941E1  -1.380925483019166E1   1.356816222397387E2  -2.795804596376225E1  -6.672213675868995  -1.014277624837590E1  -1.297073482156000E2  
                        -1.365649948435522E1   1.409088706640424E2  -2.265011482085291E1  -6.790514206443473E1  -1.015852545973456E1  -1.292975231300869E2  -2.637998592399425E1  -7.626357005345983E1  
                        
 1.100942942942943E10   -2.457812354167767E1  -6.495764318228494E1  -1.012231209714315E1   1.118654168552980E2  -2.873759580253854E1  -8.936902984510365E1  -1.350277018689816E1   3.100476943056558E1  
                        -1.014889404913268E1   1.127946974684595E2  -3.178191971132375E1  -1.463373994802659E2  -1.364658867756370E1   2.712607417246759E1  -2.632012629538383E1  -9.365159117121443E1  
                        -2.916277724855814E1  -9.423384669276788E1  -1.362142297317818E1   2.674853506456515E1  -2.504134072084291E1  -6.475414216363441E1  -1.021291796683561E1   1.203415736631024E2  
                        -1.347599453383389E1   3.179871739231041E1  -2.628033710183376E1  -9.271680430706041E1  -1.020874084608091E1   1.207519996709186E2  -2.968668658744584E1  -5.843278190551660E1  
                        
 1.107948948948949E10   -2.561856436972334E1  -1.136299425068979E2  -1.021712606536962E1   2.083660713438200  -2.768519574220551E1   1.746452423721593E2  -1.341445135356663E1  -7.845729320429486E1  
                        -1.021815385566066E1   2.943613542997238  -2.879556731123086E1  -9.387009896500091E1  -1.354221221313223E1  -8.226641128657461E1  -2.434615080334293E1  -1.166558400934094E2  
                        -2.823341812597534E1   1.732622910316993E2  -1.350540652069842E1  -8.278027173086993E1  -2.587962672873874E1  -1.419560121398205E2  -1.028865110557520E1   1.060935832224885E1  
                        -1.337075221971124E1  -7.767185293097461E1  -2.428570499035041E1  -1.165746851339368E2  -1.029677732832732E1   1.115120509004832E1  -2.378038934548676E1  -6.101798877268438E1  
                        
 1.114954954954955E10   -2.620667998472633E1  -2.453279911788645E1  -1.034982781484331E1  -1.075219475654146E2  -2.637819844138811E1   5.335866032944826E1  -1.341196539939327E1   1.718449629822647E2  
                        -1.033279562255335E1  -1.065702888741049E2  -2.459226738617845E1  -1.157669532089803E2  -1.346950591492315E1   1.681373935403579E2  -2.159202869720761E1  -1.518033226327091E2  
                        -2.677585130209916E1   5.283080014680112E1  -1.343215680787964E1   1.675654255977463E2  -2.685172920337388E1   2.895993085596089E1  -1.042271497741941E1  -9.871987297607898E1  
                        -1.338409819939587E1   1.726770010048963E2  -2.158650906778012E1  -1.525112052852709E2  -1.043725949236439E1  -9.809701587242279E1  -2.253527728835812E1  -1.061091539153068E2  
                        
 1.121960960960961E10   -2.172487875917730E1  -1.095278371303826E2  -1.042263168628010E1   1.434084652890866E2  -2.703359862814101E1  -6.780184368004686E1  -1.345514822768731E1   6.291144310933325E1  
                        -1.041717809520411E1   1.443104008945379E2  -2.352869224816836E1  -1.392107589070886E2  -1.352401965899314E1   5.894895297810304E1  -1.960430730462238E1   1.517671897689984E2  
                        -2.751349204915113E1  -6.797526788702599E1  -1.348142924352739E1   5.823517981614168E1  -2.088506601870460E1  -9.376204703904685E1  -1.050135706952505E1   1.524031720443678E2  
                        -1.345126261122203E1   6.377356094359118E1  -1.956888841778605E1   1.515946182628061E2  -1.049886023343382E1   1.529212143884084E2  -2.405461237603479E1  -1.440454923811522E2  
                        
 1.128966966966967E10   -4.353112204950546E1   1.237025158685852E2  -1.045969206521256E1   3.399096875836846E1  -2.725507910787185E1   1.785616594120807E2  -1.342330683785275E1  -4.559086444655497E1  
                        -1.045929793638162E1   3.483520693336362E1  -2.585084099569590E1  -1.436158358489872E2  -1.349543646533520E1  -4.981288602848319E1  -1.965859762634980E1   9.664065006967896E1  
                        -2.774854696359758E1   1.783966960439487E2  -1.344473277453114E1  -5.032296447332356E1  -2.927114228077437E1   1.736398697089049E2  -1.052195558241965E1   4.311913257725104E1  
                        -1.343965810960903E1  -4.491942118456464E1  -1.963333415033883E1   9.721539633168148E1  -1.052525804821897E1   4.332009410020721E1  -3.037803944579352E1  -1.294474785827963E2  
                        
 1.135972972972973E10   -2.183586505735769E1  -9.444638699578357E1  -1.055835869074685E1  -7.521056833431189E1  -2.696344227180171E1   5.477956853980565E1  -1.334053090838665E1  -1.540893315331683E2  
                        -1.052071871255050E1  -7.472495656056873E1  -2.619775541200678E1  -1.519746153895288E2  -1.336229571079128E1  -1.583274175569084E2  -1.959760173166749E1   4.412191626053193E1  
                        -2.746598500727937E1   5.492110447437051E1  -1.332372674728956E1  -1.590627074279412E2  -3.051239410714770E1  -7.973089393902005E1  -1.062965290345276E1  -6.637424580020466E1  
                        -1.331614867025094E1  -1.537059250742081E2  -1.964723849705510E1   4.439441252894645E1  -1.062571887635431E1  -6.604152489627994E1  -2.468956110656022E1  -1.180968668237309E2  
                        
 1.142978978978979E10   -2.723583072001330E1  -1.428931961439662E2  -1.059353046424240E1   1.752612805463192E2  -2.841931049792414E1  -7.552066950521822E1  -1.318068809427391E1   9.700087693331582E1  
                        -1.061325821430959E1   1.764487543524802E2  -2.633744600733636E1  -1.566330481015008E2  -1.325515155224926E1   9.215824934594160E1  -2.148006303826528E1  -5.506338893075984  
                        -2.938552938278573E1  -7.487434256695090E1  -1.322460520219650E1   9.145204638950402E1  -3.105379552902561E1  -1.048735634379714E2  -1.070619530583796E1  -1.757302582920391E2  
                        -1.313218341725619E1   9.764162107619229E1  -2.142525212604366E1  -5.546749994893927  -1.075063636605561E1  -1.753587948762865E2  -2.140593523307026E1  -1.592484002247891E2  
                        
 1.149984984984985E10   -2.689764344111520E1  -1.131130398931953E2  -1.067043169805068E1   6.578530257793474E1  -3.329472792584364E1   1.637620185297545E2  -1.306565396084061E1  -1.228187982896632E1  
                        -1.070699984712989E1   6.694229196995173E1  -2.956805005584247E1  -1.752790312282376E2  -1.316458918964680E1  -1.725815290719142E1  -2.247224822725133E1  -4.297283798112474E1  
                        -3.496046630863275E1   1.683268340447682E2  -1.315803247695780E1  -1.789351716213390E1  -2.384760214309512E1  -1.413620478962853E2  -1.081543274728921E1   7.529645332325347E1  
                        -1.299994710979556E1  -1.156962324720198E1  -2.245247195346644E1  -4.342420691183455E1  -1.081413044129022E1   7.545766782676625E1  -2.178105643771229E1   1.575575854173267E2  
                        
 1.156990990990991E10   -2.918037872186601E1  -1.407127862557648E2  -1.077119827133049E1  -4.360086571004191E1  -3.709299488834785E1   9.449898492523847E1  -1.295745206109673E1  -1.218622862832275E2  
                        -1.079184063099032E1  -4.281935553090296E1  -3.603216775851067E1   1.595112914819876E2  -1.310607366476854E1  -1.265149563424208E2  -2.277642708608611E1  -8.404410921707536E1  
                        -3.663627645948803E1   1.087825111031123E2  -1.310392728165826E1  -1.273644144925854E2  -3.188697347820851E1   8.230500389282082E1  -1.087818166893838E1  -3.404362622469552E1  
                        -1.295134967154324E1  -1.211387055932599E2  -2.285357326911644E1  -8.406147071184462E1  -1.092272650431924E1  -3.353882082272533E1  -2.675996188218888E1   9.986742760961469E1  
                        
 1.163996996996997E10   -2.169081877664776E1  -1.317913209364514E2  -1.085810518257968E1  -1.531888876534848E2  -3.273038914655603E1  -3.452256773013708  -1.291093767062324E1   1.284101462287557E2  
                        -1.088337250850448E1  -1.525492690157487E2  -3.496838525096483E1   2.340635817344289E1  -1.307897664461826E1   1.242380100571327E2  -2.190242323564768E1  -1.169037130472134E2  
                        -3.192309849971617E1   3.123854971615150  -1.304918200865948E1   1.232847602373387E2  -2.399013809914978E1  -9.579233330349652E1  -1.098254136493182E1  -1.433641673817872E2  
                        -1.290675488200132E1   1.290427897196480E2  -2.203481573927748E1  -1.171208701861820E2  -1.098022322498500E1  -1.427406123884892E2  -3.308101413564609E1   1.172110918854086E1  
                        
 1.171003003003003E10   -2.583210107058098E1   1.606580724654894E2  -1.096609841711204E1   9.761208742143806E1  -3.078920920583820E1  -1.214668717531194E2  -1.288727847491241E1   1.872571983408679E1  
                        -1.096143749032929E1   9.819057322204337E1  -2.890982535336177E1  -4.665316016123675E1  -1.303248852992884E1   1.473707220030915E1  -2.111744931354081E1  -1.655096632019954E2  
                        -3.009730821035803E1  -1.164589306500877E2  -1.305326384118004E1   1.399047833556011E1  -2.472456405433979E1   1.564030480351030E2  -1.103818501337330E1   1.075980068816428E2  
                        -1.285961823535185E1   1.992843798011755E1  -2.106323214564461E1  -1.653585180053116E2  -1.106867137156396E1   1.080481273151060E2  -3.006734149845978E1  -6.666221607387368E1  
                        
 1.178009009009009E10   -2.947501067765993E1  -1.193858477367133E2  -1.104013658194509E1  -1.202823139623514E1  -2.973086302316087E1   1.194793970775280E2  -1.291806200497292E1  -9.074332080240957E1  
                        -1.104763819308127E1  -1.111459783240525E1  -2.466778780512793E1  -7.990461995260722E1  -1.304981169530920E1  -9.474190636854846E1  -2.099591770505644E1   1.522857914969629E2  
                        -2.897405080517978E1   1.229831136400369E2  -1.302112541450394E1  -9.525449405234836E1  -3.657679919434078E1  -4.390558523110448E1  -1.109537227479951E1  -1.907194229219722  
                        -1.292067674889186E1  -8.952709365308338E1  -2.095583663475047E1   1.523537661262349E2  -1.114398019729552E1  -1.337400396989435  -2.685897664031704E1  -8.031855308100266E1  
                        
 1.185015015015015E10   -2.427208183133679E1   1.646418376719655E2  -1.114728240921753E1  -1.215582118659419E2  -2.960178026569114E1  -6.987080576015603  -1.294798654803286E1   1.604105602287116E2  
                        -1.115509435463948E1  -1.205122027390836E2  -2.475223858278665E1  -1.187249477257334E2  -1.296791622456991E1   1.563769518821535E2  -1.977987033101666E1   1.029469959147183E2  
                        -2.871326587026442E1  -4.086109834318215  -1.298568140394306E1   1.556499623485934E2  -3.749567309676416E1  -1.541880067659769E2  -1.117679158319632E1  -1.116125154313985E2  
                        -1.294734777848169E1   1.612329887247657E2  -1.975463980966884E1   1.029934785703233E2  -1.119876008335117E1  -1.110408136383833E2  -2.315561385132650E1  -8.744278393109843E1  
                        
 1.192021021021021E10   -2.503791164632447E1  -1.551470376116288E2  -1.126320402513956E1   1.289520722349933E2  -3.277165131161856E1  -1.331188733280194E2  -1.287867418920109E1   5.142591364092347E1  
                        -1.127442055485621E1   1.299544037428772E2  -2.425004106574100E1  -1.411123393235049E2  -1.292648689733471E1   4.694967510105140E1  -2.017043150902066E1   5.748468181628702E1  
                        -3.187042528901772E1  -1.307826806644339E2  -1.291874528767207E1   4.650170914228982E1  -2.745110432087680E1  -1.581410687994553E2  -1.134695824868931E1   1.387874490733940E2  
                        -1.286731555292036E1   5.212695756233430E1  -2.018706102314546E1   5.685962097080109E1  -1.135374661084598E1   1.392985227044603E2  -2.014368779134654E1  -1.132798211849306E2  
                        
 1.199027027027027E10   -2.300208647613994E1   1.381213012928313E2  -1.143936224178767E1   1.988734295473485E1  -3.689344463677354E1   1.656755824147624E2  -1.283814080996339E1  -5.740834465239108E1  
                        -1.142895455138467E1   2.074045805231409E1  -2.366814241689064E1  -1.589127908423196E2  -1.290918278186624E1  -6.208991793228353E1  -1.922929411760915E1   6.931248993905012  
                        -3.578345976446797E1   1.616664494178012E2  -1.289429914429154E1  -6.245101982673759E1  -2.272039296766689E1   1.010792210287856E2  -1.157600475054475E1   2.975780680901438E1  
                        -1.277881845963810E1  -5.650458480415898E1  -1.923039458658682E1   7.252614244701289  -1.154052440572443E1   3.038631131133591E1  -1.817899266556536E1  -1.460293606923077E2  
                        
 1.206033033033033E10   -3.362211487451874E1  -5.029988303743019E1  -1.151679757685387E1  -8.948936943158043E1  -2.921659181661217E1   6.476127536588483E1  -1.267850849718557E1  -1.661595773216370E2  
                        -1.152560132515130E1  -8.828511396607330E1  -2.274160853189745E1   1.742804097168370E2  -1.280621108117342E1  -1.712468446050677E2  -2.061018598388813E1  -4.682201924303146E1  
                        -2.847952986921643E1   6.159915966654623E1  -1.276723917517490E1  -1.717813552039127E2  -2.397115217255271E1  -3.698825487867137E1  -1.164559003542264E1  -7.884626550941560E1  
                        -1.262564349009888E1  -1.655503309380531E2  -2.064664285578273E1  -4.655682395433492E1  -1.164917075382105E1  -7.879938947774467E1  -1.913056167216293E1   1.776299873012981E2  
                        
 1.213039039039039E10   -2.047627843755605E1   1.695160704292122E2  -1.169761845586212E1   1.610550892991195E2  -2.624894244255609E1  -6.605884665476026E1  -1.258721003305117E1   8.433876787357811E1  
                        -1.173117345890411E1   1.619479400648511E2  -2.536221988754945E1   1.289648138084765E2  -1.269226989866597E1   7.920770387190132E1  -2.120497007010187E1  -8.876946230152900E1  
                        -2.579531321307590E1  -6.949242611866663E1  -1.265132139456482E1   7.863934896562756E1  -2.318644138777817E1   1.705745769961946E2  -1.178389739698157E1   1.717449763475378E2  
                        -1.257887164412558E1   8.474026249102735E1  -2.128031171367855E1  -8.873309252555615E1  -1.183781030536714E1   1.723916840966573E2  -2.262723636718384E1   1.324062461653778E2  
                        
 1.220045045045045E10   -2.482509092271927E1   1.062585789406248E2  -1.180101881406911E1   5.241340917697927E1  -2.566768260244183E1   1.711158404660892E2  -1.244642673866391E1  -2.563022330771243E1  
                        -1.185637052151007E1   5.305168910720425E1  -3.655295785874417E1   7.995789705192851E1  -1.259130815893042E1  -3.107582258985443E1  -2.391766456487823E1  -1.267361831612499E2  
                        -2.545629883621465E1   1.665296262153142E2  -1.257041005790720E1  -3.139057600123333E1  -2.382090218363003E1   6.947347616373438E1  -1.189107253677804E1   6.334337831383841E1  
                        -1.245563246677423E1  -2.532535286698895E1  -2.380773335268486E1  -1.280106895289452E2  -1.190605197063495E1   6.390928644670605E1  -3.555935966794968E1   7.526715978954950E1  
                        
 1.227051051051051E10   -4.066713287900224E1   8.756323980048100  -1.189207276784130E1  -5.676750086128944E1  -2.472386983192049E1   5.210451524320439E1  -1.244449508316351E1  -1.361659166642346E2  
                        -1.189746655197455E1  -5.637090873144786E1  -3.040048313700205E1  -1.135027315625273E2  -1.263043093722838E1  -1.409196194934073E2  -2.183790412110898E1  -1.492616050876559E2  
                        -2.473769228344654E1   4.896180363589872E1  -1.259665150001213E1  -1.416408156041280E2  -3.015709532097320E1  -2.457977995323407  -1.195814449749658E1  -4.590624014843433E1  
                        -1.248296607729535E1  -1.356937125215525E2  -2.186130779655924E1  -1.501001423940159E2  -1.198359266839452E1  -4.527362616833261E1  -2.956283356683917E1  -1.278679968717367E2  
                        
 1.234057057057057E10   -2.671077041436418E1  -1.451153519740225E2  -1.200671685843196E1  -1.661992007416454E2  -2.369571332575162E1  -6.947405191816078E1  -1.254053716406848E1   1.140240044479572E2  
                        -1.201395218768923E1  -1.655917666800621E2  -3.075178780063407E1  -1.765164377030824E2  -1.268321322103208E1   1.092685224912418E2  -1.986897975750200E1   1.634118053740752E2  
                        -2.381278656630865E1  -7.194738419375753E1  -1.263521444015758E1   1.085426478992722E2  -2.917716383949896E1  -1.209125923165641E2  -1.207855916069539E1  -1.552896556846725E2  
                        -1.261223143370551E1   1.144486363306443E2  -1.981426213215046E1   1.634090083792920E2  -1.211927168769392E1  -1.544065683537621E2  -2.849044714511843E1   1.677940697839914E2  
                        
 1.241063063063063E10   -1.701928230105035E1   1.167675715962987E2  -1.222163423368831E1   8.484515192843965E1  -2.372929543140271E1   1.690784832494456E2  -1.272350866752282E1   4.837813744040714  
                        -1.214061538989543E1   8.560180644464306E1  -4.051516081525380E1  -8.185350463617548  -1.280582117190530E1  -3.112813214435053E-1  -1.755625443352686E1   1.128563269247140E2  
                        -2.365591050429534E1   1.667073527511765E2  -1.275551987624935E1  -1.309696437021151  -1.997896341483459E1   1.088219615941679E2  -1.220881960650260E1   9.595877565384726E1  
                        -1.274695895668218E1   5.485974554357183  -1.758983258630398E1   1.129807090808784E2  -1.222250327376433E1   9.659946729645843E1  -2.880596062187313E1   4.985862315661837E1  
                        
 1.248069069069069E10   -2.011133243896690E1   6.499624502810471  -1.225759112883589E1  -2.401560775988704E1  -2.339534665955718E1   5.295879335616491E1  -1.274074460549201E1  -1.036813955542569E2  
                        -1.218610931879877E1  -2.323537116214968E1  -2.311168424182316E1  -6.859819708134461E1  -1.291440305501567E1  -1.088621638934450E2  -1.712511016096012E1   4.929987401964256E1  
                        -2.353387882501643E1   5.090409666676278E1  -1.291629861235640E1  -1.093474216384387E2  -1.779466029278445E1  -3.220159241986835  -1.227855510120262E1  -1.324687111481688E1  
                        -1.272255450029723E1  -1.029633542253541E2  -1.710737676919375E1   4.937442783730275E1  -1.229596894614398E1  -1.277388990482170E1  -2.336195341496503E1  -5.443130039608379E1  
                        
 1.255075075075075E10   -1.836350896778485E1  -1.442668262174870E2  -1.234108505669878E1  -1.340228681525567E2  -2.255931059808204E1  -6.342469833156775E1  -1.266127575927118E1   1.477247530330487E2  
                        -1.233663431473408E1  -1.333430246115299E2  -2.033894616288126E1  -1.206720331709404E2  -1.278686361499883E1   1.430383175568923E2  -1.867498542416919E1  -8.883469471515676  
                        -2.275869840493570E1  -6.542606425532003E1  -1.272197777906565E1   1.424471000280708E2  -1.957174587496784E1  -1.325221756620288E2  -1.242683029782481E1  -1.230964392049501E2  
                        -1.267555855045410E1   1.479911271396984E2  -1.864557882883528E1  -8.810807953464096  -1.244888749403447E1  -1.223924696705967E2  -1.951017096270870E1  -1.148540026553870E2  
                        
 1.262081081081081E10   -1.781017642607278E1   9.386647379427069E1  -1.262128417491198E1   1.165900340155852E2  -2.179642931339111E1   1.767288827648415E2  -1.253178236453472E1   3.878266829801132E1  
                        -1.262032465762943E1   1.172969150424973E2  -2.382799605868244E1  -1.698627592820561E2  -1.254048524141968E1   3.285663180680307E1  -2.170821234297935E1  -6.344176979813089E1  
                        -2.196831373963403E1   1.758072515655462E2  -1.252596539429193E1   3.230499879926482E1  -1.998762645323570E1   9.032894193039945E1  -1.269834110849201E1   1.277885492252480E2  
                        -1.250170653805146E1   3.917757455621973E1  -2.166712870842552E1  -6.374819688826693E1  -1.272117326473114E1   1.282029315330787E2  -2.054908471554818E1  -1.726055444482607E2  
                        
 1.269087087087087E10   -1.949851176011763E1   6.363201848689479  -1.285437085272338E1   7.878380669594655  -2.103006724848515E1   5.865263591749845E1  -1.227691869642119E1  -7.176161616871517E1  
                        -1.287897519890092E1   8.422670567507337  -4.862042292681502E1  -5.575982973379364E1  -1.246338348813867E1  -7.765802348523651E1  -2.645084316983590E1  -7.511411396725885E1  
                        -2.125101425326866E1   5.736337358091607E1  -1.247158220230794E1  -7.832196595158344E1  -1.959588195096874E1  -1.102483827427168E1  -1.289807316515989E1   1.909835306108052E1  
                        -1.228834434247976E1  -7.142589691497409E1  -2.666774958098541E1  -7.577403007347918E1  -1.292911427844521E1   1.978085701348145E1  -3.407417515698068E1   1.397232486266222E2  
                        
 1.276093093093093E10   -2.059468020781224E1  -1.160603463592890E2  -1.311259025778355E1  -1.006101773376470E2  -1.996748608399128E1  -6.056871259879660E1  -1.236935939398347E1   1.765673602356714E2  
                        -1.316074847873878E1  -1.003328308195111E2  -2.140603325645616E1  -1.154382634997412E2  -1.255944827464651E1   1.715082524868539E2  -2.178266437395982E1  -9.383660102309271E1  
                        -2.017825191943087E1  -6.164512914924397E1  -1.253449902706344E1   1.708181586366844E2  -1.917085178181741E1  -1.052430050337633E2  -1.323373035606410E1  -8.944681784761025E1  
                        -1.233414148319808E1   1.771222011323193E2  -2.167271141355485E1  -9.359537426538734E1  -1.324574370057684E1  -8.867110362282975E1  -2.181317406932771E1  -1.113260694157905E2  
                        
 1.283099099099099E10   -1.710787784863231E1   1.316474165661820E2  -1.335795644200335E1   1.516827995662198E2  -1.870587730936659E1   1.750152022473190E2  -1.265263883497799E1   6.599499418417945E1  
                        -1.341379137321012E1   1.519703601021245E2  -1.778340127967296E1   1.796354369198273E2  -1.275599820129340E1   6.092887468002728E1  -1.842854899668586E1  -1.447165593286664E2  
                        -1.893920520455176E1   1.741061932151207E2  -1.272595817915856E1   6.018208100740148E1  -1.869585198188333E1   1.353933506500775E2  -1.346994924189112E1   1.633415405072481E2  
                        -1.262051343116748E1   6.663892959903039E1  -1.832498410146139E1  -1.447690297401716E2  -1.349499523866695E1   1.642600004718119E2  -1.592425978189375E1  -1.633393374223360E2  
                        
 1.290105105105105E10   -1.481110009467652E1   9.828920353020372  -1.340056237998541E1   4.544795528389313E1  -1.823926252801391E1   4.636302864691764E1  -1.301252211117360E1  -4.243373954570145E1  
                        -1.343640384764544E1   4.603660588163569E1  -1.630252837184031E1   1.147017200752316E2  -1.322316542720655E1  -4.842375396982045E1  -1.636962236835167E1   1.545285462589558E2  
                        -1.846946032075880E1   4.600055652405707E1  -1.317673580226986E1  -4.938215821629006E1  -1.549276891915714E1   5.002039314257345  -1.344613224788592E1   5.727834319791476E1  
                        -1.298304133793951E1  -4.186313732486631E1  -1.635698077871307E1   1.543330717261095E2  -1.352769985187793E1   5.797518524670549E1  -1.528034484872092E1   1.388239294125649E2  
                        
 1.297111111111111E10   -1.629101471340831E1  -1.091139852998057E2  -1.305500782062660E1  -6.326582885872223E1  -1.863197958704761E1  -8.158346953154791E1  -1.314586289511850E1  -1.501936663518598E2  
                        -1.301896037417561E1  -6.199672827738331E1  -1.716590354217840E1   4.819926131064425E1  -1.338069063449831E1  -1.547906747695520E2  -1.640270168910975E1   9.088916491817490E1  
                        -1.892937508766024E1  -8.190577704044176E1  -1.335108650191884E1  -1.560862602922917E2  -1.467351386164901E1  -1.056918986992270E2  -1.319682459495107E1  -5.120463031947391E1  
                        -1.317904715058461E1  -1.493727098759364E2  -1.639620079699284E1   9.036516602030238E1  -1.321753942962039E1  -4.997610759964965E1  -1.669794328597677E1   7.841701784755631E1  
                        
 1.304117117117117E10   -1.528185666384829E1   1.226941450404378E2  -1.295952283048343E1  -1.736619271074510E2  -2.004699735413609E1   1.557195695853997E2  -1.306435635255620E1   1.027626026451518E2  
                        -1.287787237195189E1  -1.722503948946838E2  -1.962382394389616E1  -1.983247143618820E1  -1.321704152236097E1   9.726407647410053E1  -1.813339096072378E1   2.668533879705477E1  
                        -2.031330391440731E1   1.557209408147310E2  -1.322374464098751E1   9.612042091484469E1  -1.725533575605753E1   1.296307627564415E2  -1.298325489927325E1  -1.612592864169456E2  
                        -1.309055866723162E1   1.036805979301201E2  -1.813782092850572E1   2.656269236151469E1  -1.299413938038284E1  -1.600388813387229E2  -2.021663477031703E1   2.274459457695906  
                        
 1.311123123123123E10   -1.718469791163490E1   7.742778043736574  -1.303876567175497E1   7.555443059109929E1  -2.100830729663024E1   4.375556930227162E1  -1.276341842035389E1  -6.218570228867302  
                        -1.301497425707084E1   7.676781269405535E1  -2.678211027115183E1  -9.185367451146821E1  -1.295588544719937E1  -1.200446222462990E1  -2.356386426238733E1  -3.175824938840187E1  
                        -2.121190451659102E1   4.465295754732834E1  -1.291879697247608E1  -1.269858077143288E1  -1.659791926702881E1  -5.230265797353632  -1.312290917458048E1   8.790342700232539E1  
                        -1.275931593099082E1  -5.220290251734617  -2.364297873736211E1  -3.119541953786316E1  -1.312590311369661E1   8.883384449840941E1  -2.456350331423348E1  -7.228885474142217E1  
                        
 1.318129129129129E10   -1.608450587262270E1  -9.225197407628831E1  -1.344401422558301E1  -3.476471178788000E1  -2.018357719249193E1  -6.598889744896293E1  -1.249581539487306E1  -1.175148739771964E2  
                        -1.345781277958061E1  -3.357851118327727E1  -3.061672938213079E1  -1.369964996850843E1  -1.283266903393246E1  -1.228454260597188E2  -2.727199624425748E1  -6.850238109757488  
                        -2.030123148202448E1  -6.529992742985611E1  -1.275767904250258E1  -1.240446135480235E2  -1.566590653341828E1  -9.936872895411179E1  -1.343591383375042E1  -2.236226304177457E1  
                        -1.252748238970226E1  -1.167045126974984E2  -2.734692872840516E1  -6.894299068997841  -1.353253747685596E1  -2.116832928730007E1  -2.995329462560972E1  -3.268381951155426E1  
                        
 1.325135135135135E10   -1.661110921518425E1   1.524971892797712E2  -1.404300543662679E1  -1.426467862695918E2  -1.843876674211420E1   1.744253096436888E2  -1.271431871387005E1   1.303392132517126E2  
                        -1.404486260954137E1  -1.418105317707218E2  -1.773558418790247E1  -7.764209503091874E1  -1.296285935994201E1   1.252997807975001E2  -2.005021234564374E1  -4.429594746802269E1  
                        -1.857016020156551E1   1.751663169065259E2  -1.295537383235923E1   1.239201094431837E2  -1.653498948492382E1   1.582628364637041E2  -1.401779633641453E1  -1.296851376279333E2  
                        -1.265940507809213E1   1.310675141180119E2  -2.003034532554948E1  -4.482299368651010E1  -1.402006242859774E1  -1.288178295309160E2  -1.800332203916701E1  -6.098860030519205E1  
                        
 1.332141141141141E10   -1.479860812911820E1   3.689615364040288E1  -1.428146459925525E1   1.119340417904343E2  -1.716786331307465E1   4.647590094788130E1  -1.311473079755751E1   1.993646787550080E1  
                        -1.428041067618069E1   1.126113657625354E2  -1.309601803281895E1  -1.354166432568118E2  -1.340549900122326E1   1.467892396833486E1  -1.740661783284322E1  -1.061088455158211E2  
                        -1.724110399361408E1   4.725691828624867E1  -1.343699521160817E1   1.386464280007239E1  -1.644487055671640E1   2.091156972700113E1  -1.418517362984975E1   1.239406820743312E2  
                        -1.306056791312393E1   2.062966770431281E1  -1.738739643531613E1  -1.065866209712658E2  -1.412953333889695E1   1.252205291094904E2  -1.345671577989728E1  -1.143305742999862E2  
                        
 1.339147147147147E10   -1.454759144723982E1  -8.992578938510332E1  -1.413904138215103E1   6.551311341404059  -1.685539999253087E1  -8.495158748057683E1  -1.363563973651014E1  -8.808003980858715E1  
                        -1.408471296550598E1   6.902446177336936  -1.156828451357123E1   1.725158555358085E2  -1.402527559855694E1  -9.346045456340750E1  -1.670588966147610E1  -1.677744465133630E2  
                        -1.688175022236881E1  -8.492385619932539E1  -1.392757769753878E1  -9.446550682012668E1  -1.369055682042812E1  -9.642247806111104E1  -1.407901294505871E1   1.804297166348018E1  
                        -1.347305623968359E1  -8.803571422899471E1  -1.669392073377270E1  -1.682014533654985E2  -1.414032391818054E1   1.899821089686024E1  -1.196627135620744E1  -1.652938868683394E2  
                        
 1.346153153153153E10   -1.533950540917529E1   1.570035892087669E2  -1.363768637959662E1  -1.008124448495211E2  -1.755483421529545E1   1.427094541284380E2  -1.396928214082346E1   1.648849830816308E2  
                        -1.351946858813649E1  -1.001911219709021E2  -1.242143558206884E1   1.206803727045984E2  -1.426969559548305E1   1.612683012069092E2  -1.722336756851875E1   1.310659686493710E2  
                        -1.768058288849577E1   1.425289520507426E2  -1.428631963130276E1   1.598039747876487E2  -1.452889311951052E1   1.529830723998570E2  -1.378884430942174E1  -8.884662131514565E1  
                        -1.387955334029398E1   1.659139705097484E2  -1.725557617778080E1   1.306279590705708E2  -1.372660271392556E1  -8.769368300857371E1  -1.190806472158690E1   1.442331861869180E2  
                        
 1.353159159159159E10   -1.576521016875021E1   3.387813913483122E1  -1.315289222303109E1   1.489375104368988E2  -1.954016370191679E1   1.189212590392778E1  -1.394019114603397E1   5.999568396386080E1  
                        -1.309083585221591E1   1.492812702213737E2  -1.518592893063582E1   6.308505470968456E1  -1.413569221189656E1   5.527773265441842E1  -1.976481012918743E1   6.941223871525907E1  
                        -1.978578425605510E1   1.263475972031702E1  -1.415350673221861E1   5.448673871179342E1  -1.646994502586639E1   2.509345999063018E1  -1.325160701628174E1   1.614241558997302E2  
                        -1.385773167234210E1   6.122677522306790E1  -1.974400548302779E1   6.937102189965614E1  -1.326337879514774E1   1.621887118331141E2  -1.338559487647082E1   9.393181864721068E1  
                        
 1.360165165165165E10   -1.810244778750390E1  -7.669004338949459E1  -1.299862474954021E1   3.606307717982907E1  -2.352548564007999E1  -1.036617984031113E2  -1.342692185382529E1  -4.743740956747854E1  
                        -1.297676791643657E1   3.685263821387846E1  -2.004763708426105E1   6.346271341360182  -1.368207632315356E1  -5.226022780624609E1  -2.552008937505625E1   2.275857292080415E1  
                        -2.378905578216720E1  -1.020728431933226E2  -1.361003695926157E1  -5.338137866937103E1  -1.642912797204177E1  -9.830581179582427E1  -1.310393630619169E1   4.913551776081356E1  
                        -1.338946811103861E1  -4.660303257468688E1  -2.567888068981963E1   2.257110471447344E1  -1.320490702062002E1   5.021949020627719E1  -1.686216354043355E1   5.002826341666305E1  
                        
 1.367171171171171E10   -1.575289890415924E1   1.731528866734275E2  -1.342945603389136E1  -7.557024029548263E1  -2.342238696634572E1   1.679774589969742E2  -1.301721866611007E1  -1.582381353570989E2  
                        -1.348855839723494E1  -7.475200697356493E1  -2.199131770807220E1  -3.364127346630958  -1.327876002950279E1  -1.635954681286678E2  -2.564746553842734E1   4.829284753098503E1  
                        -2.342318143150142E1   1.703897555379778E2  -1.324906613961189E1  -1.648949145686928E2  -1.630200199556668E1   1.626785474654845E2  -1.346180560829232E1  -6.204730143258058E1  
                        -1.308625160191616E1  -1.579889188280042E2  -2.571978991834464E1   4.754257237009583E1  -1.348068901337816E1  -6.116662203575648E1  -1.935147479298043E1   2.827703411522080E1  
                        
 1.374177177177177E10   -1.662509711816959E1   6.555367729508212E1  -1.398082525610740E1   1.759461719313099E2  -1.990563685476640E1   4.978612742716470E1  -1.310765456541057E1   8.938580613051501E1  
                        -1.406569445668594E1   1.774508303173319E2  -1.574673224311504E1  -3.477834456219524E1  -1.337383785903537E1   8.405393075361523E1  -1.927009181965081E1  -3.151380851985803  
                        -1.987983859677365E1   5.137824276260137E1  -1.340600179726721E1   8.282724687556781E1  -1.606339022839411E1   5.202791619516047E1  -1.390752992043944E1  -1.705507402469779E2  
                        -1.319953855743511E1   8.992455478765567E1  -1.942131119888300E1  -3.228373592345468  -1.391543023661275E1  -1.694778346152457E2  -1.669194348146919E1   2.046267538021072E-1  
                        
 1.381183183183183E10   -1.610932008240243E1  -5.791488684767070E1  -1.415861539539346E1   6.957988812465329E1  -1.836819963852777E1  -8.328075891606770E1  -1.337744933806029E1  -2.085268303779411E1  
                        -1.422587823230734E1   7.036320604348938E1  -1.210575359628526E1  -8.290196792156954E1  -1.388553191159431E1  -2.628454183434617E1  -1.779412793655317E1  -6.629682790295077E1  
                        -1.827030448089110E1  -8.220934257604858E1  -1.387974029141268E1  -2.714744558476495E1  -1.601406985186451E1  -7.770756720066444E1  -1.412406959646816E1   8.175321339934291E1  
                        -1.341933313131492E1  -2.014012271654498E1  -1.770726290964924E1  -6.552506314848935E1  -1.410788407735964E1   8.265817886066010E1  -1.410383875253309E1  -5.159321391481153E1  
                        
 1.388189189189189E10   -1.645763786131493E1   1.693568209825020E2  -1.409340239622664E1  -3.739661178940530E1  -1.807380332755762E1   1.399761857640846E2  -1.393827055824437E1  -1.300526964296403E2  
                        -1.422068184910196E1  -3.658417042253518E1  -1.067225782677534E1  -1.343848206232488E2  -1.445618150157161E1  -1.341240470506171E2  -1.770777965965098E1  -1.263727217383786E2  
                        -1.802579710350810E1   1.411331765613064E2  -1.442116546152766E1  -1.350099822950799E2  -1.508485858298615E1   1.602553786303758E2  -1.412906325649628E1  -2.458221525964390E1  
                        -1.392708953341795E1  -1.295168559342891E2  -1.763053760035222E1  -1.262319984030752E2  -1.419212928747327E1  -2.343201723603002E1  -1.206611551030384E1  -1.050159351190573E2  
                        
 1.395195195195195E10   -1.598175146637376E1   6.655643141413728E1  -1.384089571703603E1  -1.449176898904851E2  -1.885150782563284E1   6.473482735266286E-1  -1.437276903551680E1   1.238673453448666E2  
                        -1.388420728902289E1  -1.446870264677300E2  -1.045814922968458E1   1.741098452212671E2  -1.478546157979376E1   1.210048271238170E2  -1.925275418111860E1   1.753185958857654E2  
                        -1.886169038763901E1   1.663356164419161  -1.476417980467591E1   1.200451327168387E2  -1.607850068437482E1   4.395720404516651E1  -1.393880151052588E1  -1.321026338202827E2  
                        -1.417687041929734E1   1.243727061235542E2  -1.917155500754126E1   1.758412367136974E2  -1.387893848706243E1  -1.314903653587523E2  -1.107545899843030E1  -1.567658594253939E2  
                        
 1.402201201201201E10   -1.998167322608507E1  -5.542429445199232E1  -1.348030612403421E1   1.055228435893323E2  -2.133638012134250E1  -1.438473000289818E2  -1.421325413189594E1   1.913880525456787E1  
                        -1.354286694357406E1   1.066335466909514E2  -1.145837870542092E1   1.223304968380096E2  -1.455068937665906E1   1.636699301303315E1  -2.214827252813705E1   1.289827022676938E2  
                        -2.144255169651096E1  -1.426153072860984E2  -1.438779701744427E1   1.515876050225767E1  -1.967177623677022E1  -7.889399624304332E1  -1.362375102606016E1   1.184284843759494E2  
                        -1.411479918432539E1   1.984565318949844E1  -2.207099786310873E1   1.284355045230157E2  -1.368424003002240E1   1.192996399542966E2  -1.120521863407819E1   1.544885634571458E2  
                        
 1.409207207207207E10   -2.147235455598402E1  -1.693219991617222E2  -1.332636179781608E1  -6.052190339437704  -2.798395698060738E1   6.742383591567271E1  -1.379657452025898E1  -8.832469592154575E1  
                        -1.330211641327296E1  -4.415111138516203  -1.331541111638899E1   7.830500736077066E1  -1.393281681299323E1  -9.134493240643168E1  -2.493288198762531E1   9.585700870738421E1  
                        -2.862582903642971E1   7.033451321092619E1  -1.389579704268286E1  -9.286700696811562E1  -1.957050056616088E1   1.635092017937556E2  -1.344261474171834E1   7.839816982879480  
                        -1.372607686182460E1  -8.733267754549104E1  -2.509836928112276E1   9.575635872929347E1  -1.349814271704122E1   8.777158000661459  -1.310448518024184E1   1.108797439906122E2  
                        
 1.416213213213213E10   -1.701026203012708E1   8.501482494452185E1  -1.351992435190084E1  -1.171751324164657E2  -3.935370889301968E1   8.768258381571914E1  -1.341699307394235E1   1.621251456099738E2  
                        -1.347809716132515E1  -1.152821419709748E2  -1.551241922980806E1   4.896173639821443E1  -1.349604525845843E1   1.582233324474631E2  -2.308764981010000E1   8.459047910115535E1  
                        -3.663038030423792E1   8.108373236550942E1  -1.348112750691293E1   1.569202323037966E2  -1.843804957411649E1   6.909609457332226E1  -1.361242867844589E1  -1.027947933295334E2  
                        -1.344934900722398E1   1.635776805093165E2  -2.301221038063250E1   8.461626473314313E1  -1.364006965970851E1  -1.017558145617702E2  -1.595027545925749E1   7.520713365445928E1  
                        
 1.423219219219219E10   -1.942117308433420E1  -1.300215927854199E1  -1.371179496846447E1   1.331464191877614E2  -2.634093039985601E1  -5.716792038531415E1  -1.324136353395958E1   5.157057478293508E1  
                        -1.370179599398946E1   1.349940797155268E2  -1.568210745614817E1   1.907696945489492E1  -1.336880493345789E1   4.685118843960485E1  -1.989079128734984E1   3.195992740616303E1  
                        -2.580800996762347E1  -5.912809191139647E1  -1.337065431930091E1   4.561069507491421E1  -1.840827669667282E1  -3.862867753554618E1  -1.375676987846553E1   1.477150377577406E2  
                        -1.330358337882431E1   5.275392490752061E1  -1.992077154444705E1   3.135692193853701E1  -1.380340130387028E1   1.484351379664107E2  -1.709972215353185E1   4.847967877705393E1  
                        
 1.430225225225225E10   -1.987635070187006E1  -1.601276630264615E2  -1.395706715034548E1   2.363609705178403E1  -2.334501205221027E1   1.505347903276816E2  -1.324400810216111E1  -5.921267734257608E1  
                        -1.400538210135288E1   2.521974313731280E1  -1.450867850983153E1  -2.738922896168742E1  -1.358446454438296E1  -6.417463313104648E1  -1.940292461697721E1  -2.110397680068408E1  
                        -2.305631299061274E1   1.503100841577349E2  -1.351693181785057E1  -6.556748697423279E1  -1.906851193857721E1   1.767089542178792E2  -1.396795694205846E1   3.803694441574366E1  
                        -1.333853223081855E1  -5.855387006170540E1  -1.930085094027882E1  -2.132617944211556E1  -1.404646243146667E1   3.929070931390400E1  -1.613678986268780E1   7.794179745189028  
                        
 1.437231231231231E10   -2.049186337723941E1   7.627936271490181E1  -1.415094092754397E1  -8.471011473372079E1  -2.295399394322579E1  -3.788666174668284  -1.360177925730958E1  -1.689388592501593E2  
                        -1.418989027756565E1  -8.325571459927686E1  -1.299493229221981E1  -8.350121991083766E1  -1.391699686253306E1  -1.727969196513002E2  -1.940357393389362E1  -7.825444720575325E1  
                        -2.275361406814581E1  -2.936811606022963  -1.390993399122356E1  -1.740227868492219E2  -1.862076326201261E1   5.229254141751319E1  -1.414500993829069E1  -7.022489485754693E1  
                        -1.361661303322778E1  -1.685047262255208E2  -1.940006836082561E1  -7.937482182536635E1  -1.418076011176115E1  -6.886557857127085E1  -1.410156074469787E1  -4.649984668620473E1  
                        
 1.444237237237237E10   -2.104726836286351E1  -2.357149800368955  -1.431040308720845E1   1.666180019718367E2  -2.343354994394971E1  -1.641756968367483E2  -1.375800187154987E1   8.357655123615238E1  
                        -1.429965518502632E1   1.678630339633980E2  -1.114689346983032E1  -1.351436858547857E2  -1.396390867753120E1   7.991836251279936E1  -2.172405863426332E1  -1.245611013624580E2  
                        -2.328097150031859E1  -1.622027396588562E2  -1.395948551731578E1   7.872339026381837E1  -2.153285125130717E1  -4.492763141988900E1  -1.426202462590099E1  -1.786643227615491E2  
                        -1.371175165326735E1   8.391983794586156E1  -2.174515721757682E1  -1.238581988694489E2  -1.428600583028451E1  -1.774385309911000E2  -1.223680874412913E1  -9.844148023536576E1  
                        
 1.451243243243243E10   -3.048663797237589E1  -1.026182338148743E2  -1.431746003241235E1   5.894794157469206E1  -2.403999961612323E1   2.902832991460211E1  -1.375297964289421E1  -2.455947317201871E1  
                        -1.426802902433596E1   5.960550258033476E1  -1.032698765254021E1  -1.794118751082065E2  -1.390220632425093E1  -2.832919559000646E1  -2.185496058745311E1  -1.617337269207946E2  
                        -2.405698618454571E1   3.101317815459283E1  -1.396188530443716E1  -2.934369394685306E1  -3.131853321332249E1  -1.331579563067833E2  -1.429222722438646E1   7.344226969334467E1  
                        -1.366846057886358E1  -2.411097821470773E1  -2.176199579962621E1  -1.623069863935317E2  -1.427331173720056E1   7.457518339954189E1  -1.189389568104235E1  -1.484948883076716E2  
                        
 1.458249249249249E10   -2.261387100553169E1   1.298882134439447E2  -1.423604686107026E1  -5.037951471081282E1  -2.424436984310983E1  -1.387535682406038E2  -1.361472268938202E1  -1.322789575246378E2  
                        -1.411636388203487E1  -4.944571730353481E1  -1.104952517808787E1   1.404197047977995E2  -1.377399294031715E1  -1.363334857801785E2  -2.231246189528772E1   1.612190225496547E2  
                        -2.447409923554920E1  -1.378494294187800E2  -1.381399754349306E1  -1.372726055411848E2  -2.424305101026898E1   9.100551726630584E1  -1.421659023757123E1  -3.558202165447344E1  
                        -1.352986041209140E1  -1.312539514718983E2  -2.226264202328188E1   1.615025745454896E2  -1.421133684446954E1  -3.444825194301523E1  -1.247287772224239E1   1.656661174895070E2  
                        
 1.465255255255255E10   -1.928174454880607E1   9.858903890353599  -1.421461346688833E1  -1.589321337227948E2  -2.491218723323015E1   5.876057989735688E1  -1.344238532836776E1   1.189522360581201E2  
                        -1.413421984389121E1  -1.583145910152706E2  -1.335846754790217E1   1.020823178551424E2  -1.367842789378758E1   1.148642965451959E2  -2.033641382689818E1   1.165917981049450E2  
                        -2.508460273697360E1   5.870043188655578E1  -1.366186800712372E1   1.140448309642898E2  -1.774102214985543E1  -1.101081760889377E1  -1.419118408043750E1  -1.438470404149547E2  
                        -1.340094251878929E1   1.199872635554855E2  -2.026159960028012E1   1.163938142925969E2  -1.423152526363852E1  -1.431615834874329E2  -1.479727871547386E1   1.250197776300875E2  
                        
 1.472261261261261E10   -2.277168466416103E1  -8.511977334965884E1  -1.399717246838176E1   9.085010901850588E1  -2.760871211407332E1  -9.837107368924836E1  -1.325868266652462E1   9.933335891227999  
                        -1.398123004191671E1   9.203528160469259E1  -1.744264815075992E1   6.656425976304941E1  -1.345069322292360E1   6.433954688574086  -2.092293908536024E1   6.478588198836629E1  
                        -2.769035961233369E1  -1.009447509449614E2  -1.338442601228607E1   5.336122592120601  -1.982443473258944E1  -1.108917129618979E2  -1.399572003706226E1   1.057554648510485E2  
                        -1.328256259710312E1   1.124180904124592E1  -2.101083289972996E1   6.369903054085744E1  -1.402075024075439E1   1.070884082433403E2  -1.729767427102891E1   9.070670066058338E1  
                        
 1.479267267267267E10   -2.491961978855698E1   1.144970385821637E2  -1.412862020687426E1  -2.055191383123136E1  -3.784250559610570E1   1.106840130344482E2  -1.312171443092900E1  -1.002173145054434E2  
                        -1.409306163019619E1  -1.918857847538481E1  -1.970374981039778E1   2.950497625154935E1  -1.319406013717763E1  -1.041970047125084E2  -2.128231800508884E1   2.156132844519865E1  
                        -3.836563762867036E1   9.538823838349769E1  -1.321178882909423E1  -1.053178897281277E2  -2.314604265939684E1   7.811202125687535E1  -1.418323730398947E1  -5.035451731277091  
                        -1.315493459272307E1  -9.904054101120249E1  -2.138998165421645E1   2.225129058873702E1  -1.419925434791441E1  -3.880558039825168  -1.791180715135389E1   6.270366433276720E1  
                        
 1.486273273273273E10   -2.782826225063096E1   1.581008597387573E1  -1.452801630961701E1  -1.307279697271474E2  -3.270811212293312E1   1.309507358312601E2  -1.312935910168960E1   1.497421108815967E2  
                        -1.454166386096184E1  -1.295917389736886E2  -1.739182121891652E1  -1.679948696481135E1  -1.321706982768080E1   1.451751844816470E2  -2.258247914292782E1  -2.025597283121630E1  
                        -3.207172332008224E1   1.390781878388809E2  -1.320535618479693E1   1.441387439619681E2  -1.994776280048215E1  -2.483895612701521E1  -1.447930109338771E1  -1.144925724418119E2  
                        -1.319278713916174E1   1.509524650769922E2  -2.249282455820732E1  -2.067563683828506E1  -1.450669257702694E1  -1.132803731200770E2  -1.727995573400984E1   2.119460858208328E1  
                        
 1.493279279279279E10   -1.995631346125612E1  -6.392867765986845E1  -1.492220132825488E1   1.213034790975446E2  -2.503104961377135E1  -1.079066717829396E1  -1.317501863592426E1   3.976670875081138E1  
                        -1.495883042259967E1   1.224378098096794E2  -1.367363284060092E1  -6.674075271667024E1  -1.330014892265005E1   3.453334527721719E1  -2.129150726573731E1  -5.230293149855872E1  
                        -2.482048632020089E1  -8.883561373342198  -1.333843363447353E1   3.345883136341980E1  -2.015708659732732E1  -8.496427821674867E1  -1.474190023171837E1   1.375105028963463E2  
                        -1.322237885528611E1   4.075385934138529E1  -2.135288063702856E1  -5.166068410613399E1  -1.477395311235043E1   1.385646084270175E2  -1.579348017097886E1  -3.730274440384346E1  
                        
 1.500285285285285E10   -2.390054691705857E1  -1.634378271052401E2  -1.500983946797767E1   1.404371367709115E1  -2.163925101786267E1  -1.521886278941022E2  -1.334367240888145E1  -6.959231817728289E1  
                        -1.507886269602402E1   1.468618750286958E1  -1.177039091674570E1  -1.167921797266551E2  -1.357062484960128E1  -7.455100425859723E1  -1.998887368195060E1  -1.012867739784889E2  
                        -2.163908021300396E1  -1.521249008574943E2  -1.361297796557281E1  -7.537586860954016E1  -2.554818626560097E1   1.587814569188901E2  -1.484318951721071E1   2.958771193293244E1  
                        -1.337638469067747E1  -6.854219092062144E1  -1.992692495530941E1  -1.009432919267829E2  -1.482089969366342E1   3.114083372244733E1  -1.468541199352442E1  -9.302567275068313E1  
                        
 1.507291291291291E10   -2.097535877297286E1   4.302340559240756E1  -1.502160053764470E1  -9.368470929300453E1  -2.012550804236118E1   6.657501102938873E1  -1.346786254990994E1  -1.782531340389019E2  
                        -1.512076729584854E1  -9.287721581706670E1  -1.177744274486866E1  -1.664943600852290E2  -1.389550371284731E1   1.768343415121077E2  -1.932695433997394E1  -1.503336886821790E2  
                        -2.020643473776278E1   6.734071518860397E1  -1.373756160231434E1   1.762768467541445E2  -1.866859680185872E1   5.894401770448668  -1.486671364066523E1  -7.771088663014062E1  
                        -1.339819478625237E1  -1.773143650352052E2  -1.930063117869023E1  -1.496598955621636E2  -1.487090277313067E1  -7.688606710012894E1  -1.437312260683597E1  -1.474505952924596E2  
                        
 1.514297297297297E10   -1.933186383572944E1  -9.080986880157451E1  -1.477561884101805E1   1.589218660415891E2  -2.020125850146274E1  -7.224969539601804E1  -1.353933125954546E1   7.384458864459133E1  
                        -1.477667445953713E1   1.597588982812868E2  -1.337244619394916E1   1.415139720941617E2  -1.399068350937423E1   7.047724416313108E1  -1.912580533149356E1   1.534850945930196E2  
                        -2.029052487982839E1  -7.134360029537784E1  -1.398720500207616E1   6.871509153719707E1  -1.644408959760974E1  -9.820997428573838E1  -1.465963879207654E1   1.741586890435909E2  
                        -1.346408054523793E1   7.489355125540035E1  -1.907605976960407E1   1.538383072148022E2  -1.465183384552273E1   1.755309602373288E2  -1.507261489499030E1   1.674653855720538E2  
                        
 1.521303303303303E10   -2.108147749972763E1  -1.762508859229917E2  -1.444187318910250E1   4.804945128755927E1  -2.200459253459718E1   1.533252063537579E2  -1.340639890260276E1  -3.410535511585496E1  
                        -1.448291570128467E1   4.930622630134043E1  -1.668665970794791E1   9.684539650204489E1  -1.368280690052554E1  -3.650985337819436E1  -2.103409137116470E1   1.005265167069198E2  
                        -2.215879622115764E1   1.546047181411597E2  -1.365743565545012E1  -3.789011982924929E1  -2.124993380296962E1   1.435414098697228E2  -1.443511336166468E1   6.358268317984467E1  
                        -1.341216355148000E1  -3.260721124770836E1  -2.113181790610302E1   9.982197604932793E1  -1.442580231151812E1   6.448967300562134E1  -1.748763463226927E1   1.303339004798685E2  
                        
 1.528309309309309E10   -2.942955748784571E1   2.813871250648782E1  -1.448106039037820E1  -6.394381626897219E1  -2.537107462510879E1   3.929200894848517E1  -1.316561855158487E1  -1.430797094426372E2  
                        -1.455900269170091E1  -6.253344014582889E1  -2.079154296467202E1   8.069256481772118E1  -1.336679063691989E1  -1.461926641177251E2  -2.375611434924455E1   6.417110218726434E1  
                        -2.535799462174071E1   4.159571807109687E1  -1.329280953182624E1  -1.477584956248465E2  -2.081736098282060E1  -3.448794116525855  -1.441736696149114E1  -4.737800159379491E1  
                        -1.317376061747307E1  -1.417063426580530E2  -2.369969603687355E1   6.386803617438065E1  -1.450304732290554E1  -4.591490273217251E1  -2.017723540146750E1   1.070816062034267E2  
                        
 1.535315315315315E10   -2.465099567322879E1  -6.984051317213560E1  -1.494113493926245E1  -1.746609717534489E2  -2.476466515294560E1  -5.495002802110314E1  -1.306797097344854E1   1.061588967813694E2  
                        -1.497006874378608E1  -1.732307653918653E2  -1.735404808622500E1   7.120068029694627E1  -1.318917499862938E1   1.028526018345515E2  -2.416467562830540E1   4.745112911982598E1  
                        -2.461804513225820E1  -5.436848903626968E1  -1.317197579760640E1   1.014489710575273E2  -1.971504800124463E1  -1.020421373219360E2  -1.480168801366423E1  -1.568583788377311E2  
                        -1.305219708755043E1   1.073567940306637E2  -2.401965953208232E1   4.612383663312701E1  -1.477730484118196E1  -1.559727685942933E2  -2.009986306441925E1   8.532293297335519E1  
                        
 1.542321321321321E10   -1.818242518323141E1  -1.698534706654650E2  -1.535785956154292E1   7.722607181070798E1  -2.170817357592033E1  -1.720227057976699E2  -1.320775798811615E1  -3.683743308705147  
                        -1.543844884401083E1   7.874827671456517E1  -1.539618988265885E1   2.679411559673858E1  -1.337267846452386E1  -7.855087376888482  -2.008156980318235E1   7.921127819678633  
                        -2.166519181792186E1  -1.715151437227098E2  -1.325282190526793E1  -9.277145212108364  -2.057840449018332E1   1.656514596321505E2  -1.497130339493868E1   9.481332866390299E1  
                        -1.319233904778618E1  -2.769201562208289  -2.015597620420265E1   7.938096908965175  -1.501508380585625E1   9.615547113999492E1  -1.988282923041470E1   3.561640249441845E1  
                        
 1.549327327327327E10   -2.285031816279742E1   8.710889557250799E1  -1.553338089259523E1  -2.972520079683967E1  -2.002957195440797E1   5.970918305071773E1  -1.329745278630025E1  -1.129736590194599E2  
                        -1.564798956358671E1  -2.848738317575352E1  -1.621264557324045E1  -3.995446545098455E1  -1.354539187095990E1  -1.174333079267535E2  -1.838609446462237E1  -4.768129581737040E1  
                        -2.006338416301978E1   6.097104163255325E1  -1.354731113488780E1  -1.191971037428302E2  -2.026137492879199E1   3.130929235529213E1  -1.507180086343231E1  -1.364926249781921E1  
                        -1.326782111028321E1  -1.122062855260198E2  -1.829349352007480E1  -4.759306526323342E1  -1.511346560136998E1  -1.223467889874138E1  -1.971033532930259E1  -3.220285691380008E1  
                        
 1.556333333333333E10   -1.977128452604195E1  -7.869157465702780E1  -1.545210304969887E1  -1.370502050055267E2  -1.954964182903495E1  -7.064360950630461E1  -1.343648967689819E1   1.377984645350951E2  
                        -1.554189100221976E1  -1.348941890298703E2  -1.620642331476318E1  -1.199448143554752E2  -1.387782013206548E1   1.340197337358410E2  -1.773809065183111E1  -1.045964721128180E2  
                        -1.946864072620683E1  -6.899610311500800E1  -1.381064333045650E1   1.328315813247209E2  -1.783238285670993E1  -9.760182252718268E1  -1.511556426127135E1  -1.215398155145031E2  
                        -1.347434205321201E1   1.387382356408223E2  -1.780777634850012E1  -1.048021782012814E2  -1.510024105606724E1  -1.201458948208930E2  -1.869585138028821E1  -9.725142060919279E1  
                        
 1.563339339339339E10   -1.920373093991658E1   1.594437619488037E2  -1.525349873019658E1   1.146610323040502E2  -1.993800784021513E1   1.612725809140221E2  -1.357854536870014E1   3.031259151814809E1  
                        -1.527556237760622E1   1.160337631251578E2  -1.533152762570072E1   1.748455455135164E2  -1.394902297073831E1   2.710913747006531E1  -1.853579585245448E1  -1.634806919549142E2  
                        -1.981519067335265E1   1.620923380449254E2  -1.392351515343623E1   2.554847093441561E1  -1.736680536474998E1   1.485041902663837E2  -1.490161015641226E1   1.302697705651490E2  
                        -1.354209996331807E1   3.084931074246211E1  -1.847483353498138E1  -1.631261831954512E2  -1.493657486279547E1   1.312890905547576E2  -1.859525671019092E1  -1.511684496000131E2  
                        
 1.570345345345345E10   -2.225114561228936E1   7.884625265629958E1  -1.500254585248760E1   4.502420371838377  -2.111553444871331E1   3.613900216565113E1  -1.344505614235206E1  -7.758786152811607E1  
                        -1.495819589073093E1   5.613859979023876  -1.682447612537206E1   1.278742090599696E2  -1.376878776230102E1  -8.025786702183081E1  -2.095314190792936E1   1.437778753409150E2  
                        -2.100858967711887E1   3.674176580692061E1  -1.376566596510410E1  -8.140737702917089E1  -2.037277081803914E1   1.793916499565550E1  -1.474691715093213E1   1.976849385629317E1  
                        -1.343210740089309E1  -7.681915635718983E1  -2.093671256498807E1   1.428415862768722E2  -1.475715143808269E1   2.114614039324271E1  -2.077638124221523E1   1.699935443001899E2  
                        
 1.577351351351351E10   -2.866542448843221E1  -1.338593785870483E2  -1.499868032921647E1  -1.071620836525946E2  -2.263320394646498E1  -7.894558376252385E1  -1.327480969494841E1   1.731126626756914E2  
                        -1.496881289864768E1  -1.058270735942207E2  -2.141635448194040E1   1.298870027078366E2  -1.347165051869739E1   1.710560755163656E2  -2.467423313017433E1   1.102756857494768E2  
                        -2.250967539897344E1  -7.802211677473483E1  -1.343962123180018E1   1.697511885507381E2  -2.115694041052812E1  -1.103955718356738E2  -1.484259204967217E1  -9.079630627763747E1  
                        -1.327798370174818E1   1.742141389513631E2  -2.476792355827586E1   1.101760325781818E2  -1.485745558156635E1  -8.959541387275742E1  -2.434817251155304E1   1.513698813838296E2  
                        
 1.584357357357357E10   -2.167941591722918E1   1.680484471437185E2  -1.537628934933336E1   1.420619657313312E2  -2.233445021526288E1   1.714993115895585E2  -1.322342383358535E1   6.297673180453321E1  
                        -1.533248313987544E1   1.436802835910142E2  -1.787862632527727E1   1.394430524538660E2  -1.328005667389267E1   6.041500219417668E1  -2.405734764853333E1   1.015204205840290E2  
                        -2.214886548940703E1   1.725523466201975E2  -1.327620943179641E1   5.922753292375851E1  -1.969172692275740E1   1.497440056085724E2  -1.508077687765440E1   1.598069313636220E2  
                        -1.322194642362261E1   6.412203274383803E1  -2.399911744427230E1   1.010481994414104E2  -1.511735002184529E1   1.607389020800540E2  -2.247942864111302E1   1.481504757716234E2  
                        
 1.591363363363363E10   -1.844477590478124E1   7.380716809536555E1  -1.571671915529795E1   3.407464455250052E1  -2.112893348735204E1   5.247210713508135E1  -1.328579491659140E1  -4.655521149076509E1  
                        -1.572065844387893E1   3.567785112865346E1  -1.616341923514240E1   1.007103361442025E2  -1.338988511366291E1  -4.945121757994588E1  -1.968863037416682E1   5.919191106233802E1  
                        -2.094265231415362E1   5.341154418310070E1  -1.337871318332924E1  -5.101700446050648E1  -2.038845670686033E1   5.114900741327554E1  -1.521573140303542E1   5.061357775744970E1  
                        -1.337736245451364E1  -4.586307358976981E1  -1.965264411917208E1   5.893581968086888E1  -1.521874229841253E1   5.194598880371943E1  -2.256767186460909E1   1.058989260615566E2  
                        
 1.598369369369369E10   -2.811125652462067E1  -3.546238966879572E1  -1.575541041293787E1  -7.376063394985778E1  -2.083937167246438E1  -7.199255557143005E1  -1.338227154892142E1  -1.554747657863255E2  
                        -1.567785358751867E1  -7.240069515460115E1  -1.964179189070291E1   4.741166734665751E1  -1.344476637753217E1  -1.582983565720313E2  -1.786751710029863E1   2.074337667090264  
                        -2.057941424538719E1  -7.194819574628198E1  -1.345118744088285E1  -1.600658033323617E2  -2.152960179188067E1  -7.959789730097933E1  -1.534224893161725E1  -5.824563952453747E1  
                        -1.345806679759244E1  -1.545897452163560E2  -1.784548998032082E1   1.751349083280480  -1.531691772287000E1  -5.710398430198316E1  -2.421877103240777E1   4.224222773304589E1  
                        
 1.605375375375375E10   -1.772037639810891E1   1.374501435162811E2  -1.576709859134129E1   1.780205303153634E2  -2.121832670968151E1   1.652670138021456E2  -1.348593801269674E1   9.575778488047899E1  
                        -1.576704525805651E1   1.790516750559523E2  -2.541303285001622E1  -5.773055748935217E1  -1.353691952568841E1   9.222156671357757E1  -1.726778224134603E1  -5.458158434987966E1  
                        -2.103601656575736E1   1.647058023523975E2  -1.350063645763510E1   9.122825302937930E1  -1.831481892837036E1   1.374885811894455E2  -1.544610648235187E1  -1.671259567927316E2  
                        -1.350353117367748E1   9.632424575629732E1  -1.726233511785173E1  -5.487370866634416E1  -1.551693687818205E1  -1.659401431799022E2  -2.830299907930518E1  -4.337063422843554E1  
                        
 1.612381381381381E10   -1.831131467824267E1   3.781551276649690E1  -1.556079230667449E1   6.945338043643503E1  -2.165246469410543E1   4.579578145729181E1  -1.354668319509636E1  -1.240580037159307E1  
                        -1.566327923850427E1   7.030007293156042E1  -2.314209611173193E1  -1.517630139586137E2  -1.361819968753678E1  -1.580379649654913E1  -1.798549801501918E1  -1.161510573325164E2  
                        -2.142485311351816E1   4.580818347356215E1  -1.356053834407337E1  -1.729873706909880E1  -1.732319591372450E1   3.126337059294052E1  -1.542977230922319E1   8.484157051033783E1  
                        -1.350940313701433E1  -1.141868118705313E1  -1.799916338691034E1  -1.158736397757448E2  -1.543838054698258E1   8.588679388570610E1  -2.778956667269836E1  -1.501651169258109E2  
                        
 1.619387387387387E10   -2.899638342914762E1  -2.680366656602125E1  -1.545435176922075E1  -4.169959254059987E1  -2.201961347767254E1  -7.455266652091302E1  -1.335937548886163E1  -1.208900138111296E2  
                        -1.553606209215858E1  -4.036967528145878E1  -2.627595014013069E1   1.478105933548439E2  -1.350492263016697E1  -1.239286631772083E2  -2.083884220960774E1  -1.660297394385530E2  
                        -2.174851111576730E1  -7.432565257452913E1  -1.348859748281825E1  -1.251296800895021E2  -2.337853906541107E1  -7.977964843378319E1  -1.535672104664815E1  -2.561366228793449E1  
                        -1.337230617885646E1  -1.197911904906797E2  -2.084074978684953E1  -1.662112346619813E2  -1.537079326874300E1  -2.448929619082792E1  -2.923557377407627E1   1.551098232786183E2  
                        
 1.626393393393393E10   -1.989061269205581E1   8.662789893407022E1  -1.564611403750046E1  -1.524099909862668E2  -2.255100102630255E1   1.697343050299346E2  -1.321976949784265E1   1.295099136386432E2  
                        -1.570703660012584E1  -1.516078148924358E2  -3.739371124962830E1  -1.431814701996898E2  -1.326917306192459E1   1.264983986360841E2  -2.354582475175835E1   1.577625039197503E2  
                        -2.231535609077939E1   1.691545767446071E2  -1.325843948657269E1   1.254162928135751E2  -2.294450949732211E1   1.010880780264508E2  -1.555235858158218E1  -1.357511022488572E2  
                        -1.323023789715457E1   1.304495913118392E2  -2.365272930387797E1   1.586355351405573E2  -1.555312349103843E1  -1.346261018122067E2  -4.516435635555039E1  -1.752431250266058E2  
                        
 1.633399399399399E10   -1.830829846146078E1   4.969635711335030E1  -1.597396438166649E1   9.849824494606862E1  -2.202698887000620E1   5.472299408581187E1  -1.326798292581628E1   1.966533854583519E1  
                        -1.602914270780893E1   9.916909229337665E1  -2.243780888612696E1  -1.613302480290782E2  -1.328804227477332E1   1.614585160310804E1  -2.344111186542850E1   1.478327236366519E2  
                        -2.184151188240833E1   5.328083202345010E1  -1.328568940694955E1   1.517569054000857E1  -1.780684742970355E1   2.685607351411612E1  -1.573168878200155E1   1.158973072291995E2  
                        -1.326548391159521E1   2.035865686396657E1  -2.335932618014209E1   1.470966495903074E2  -1.575787120007803E1   1.167816351760600E2  -2.497427835370442E1  -1.717498957044884E2  
                        
 1.640405405405405E10   -2.101318219701374E1  -3.456111203494311E1  -1.611601171243738E1  -9.938335686751064  -2.134605456867994E1  -6.859168599957467E1  -1.337489079797925E1  -8.987940456509149E1  
                        -1.611231699917164E1  -8.642488359165599  -1.977289193021247E1   1.387697362097374E2  -1.342398055649690E1  -9.282266895050194E1  -1.942060588656785E1   1.026155311145950E2  
                        -2.128470810622134E1  -7.035010550648038E1  -1.337454271191323E1  -9.393577579352258E1  -1.977061504910138E1  -4.475429645817054E1  -1.576940551394406E1   6.657993005795877  
                        -1.339845035185715E1  -8.891589409982080E1  -1.945516140626691E1   1.022098612177172E2  -1.574636506554185E1   7.814360053237999  -2.146613996872826E1   1.488770067583305E2  
                        
 1.647411411411411E10   -2.410699556755620E1   9.310783197685115E1  -1.619568342179768E1  -1.193394340996559E2  -2.189363218618023E1   1.640895459632132E2  -1.346250701453549E1   1.610936524871023E2  
                        -1.620054642130603E1  -1.181810281396025E2  -1.960617420298107E1   8.705479364644897E1  -1.339653116506015E1   1.578275352539755E2  -1.817006674634148E1   4.985750748406070E1  
                        -2.187877881450496E1   1.634446277679623E2  -1.337664408615570E1   1.570283590238296E2  -2.696196796974955E1   1.126759850973357E2  -1.586299103580625E1  -1.025977808481032E2  
                        -1.346624826796089E1   1.616739212289265E2  -1.819892704210538E1   5.007995659289956E1  -1.589680602616822E1  -1.016900121174966E2  -2.426846841419863E1   1.085235077930679E2  
                        
 1.654417417417417E10   -1.400598708713670E1   2.281713796936857E1  -1.628282319625514E1   1.322846801734842E2  -2.371935414418860E1   4.561441904177622E1  -1.362319845477251E1   5.266815269745830E1  
                        -1.627307173519533E1   1.338276562905018E2  -2.432667908570879E1   4.509269475730022E1  -1.350234862802364E1   4.923572887830426E1  -1.706288213391953E1  -6.691391514616943  
                        -2.358302727402040E1   4.569595735099440E1  -1.348850314054079E1   4.812541010965465E1  -1.569408636471640E1   1.272487257958951E1  -1.592293177285791E1   1.484050586530784E2  
                        -1.362981423240198E1   5.368776746436040E1  -1.702708750336160E1  -6.718867443566030  -1.590778101598222E1   1.492691039498929E2  -3.637592046839901E1   1.294595080702096E2  
                        
 1.661423423423423E10   -2.141705754388102E1  -5.448693885243061E1  -1.615118258778617E1   2.316032535510027E1  -2.419302179067622E1  -6.249276659072461E1  -1.355158979128635E1  -5.500168543930754E1  
                        -1.615326673695153E1   2.474651418365419E1  -3.036415139989463E1   8.250021327262081E1  -1.344297203240284E1  -5.873155218908431E1  -1.843492769354095E1  -6.637331884141504E1  
                        -2.408339998827430E1  -6.410632544191788E1  -1.344038285652531E1  -5.976693380371431E1  -1.844076488214233E1  -6.049144188964738E1  -1.594189225095460E1   3.837142823612113E1  
                        -1.351097568347279E1  -5.428318187655536E1  -1.845669872083498E1  -6.627278445811352E1  -1.591187291573596E1   3.995689630815152E1  -2.339452918571358E1   1.520785240575965E2  
                        
 1.668429429429429E10   -2.350173165471559E1   5.557002513165523E1  -1.625428489067026E1  -8.842503186972839E1  -2.324773137502458E1  -1.763733678008174E2  -1.342245738005687E1  -1.638615677833826E2  
                        -1.627701935452289E1  -8.700009043420769E1  -2.355356377196241E1   7.142644007274096E1  -1.326005940864446E1  -1.676453788849173E2  -2.007570284857705E1  -1.101161048862649E2  
                        -2.321291231709193E1  -1.785970187511583E2  -1.323541242747836E1  -1.688811589893909E2  -3.166371164262580E1   5.799514926200936E1  -1.617995968109585E1  -7.208433940755270E1  
                        -1.341373440459225E1  -1.630357904212707E2  -1.998600426597286E1  -1.101718274264418E2  -1.616738004146147E1  -7.141457134167160E1  -2.031082188563012E1   1.174276977269899E2  
                        
 1.675435435435435E10   -1.594340971933024E1  -4.377573770444601  -1.671952483756395E1   1.622927082823377E2  -2.255140404621246E1   6.256300508774640E1  -1.329912852666191E1   8.671596730437344E1  
                        -1.670884381824097E1   1.637360315756407E2  -2.382680447428583E1   3.343072658006933E1  -1.317418272341489E1   8.209087147542286E1  -2.251224935577995E1  -1.512056690605550E2  
                        -2.254089668139778E1   6.088539599049097E1  -1.315556563422244E1   8.083371403373101E1  -1.811868038919531E1  -5.133835152645053  -1.655166205898920E1   1.794262989793593E2  
                        -1.324383493208627E1   8.778405349084073E1  -2.258406260017955E1  -1.522006131971406E2  -1.660285873559492E1  -1.795194726880131E2  -2.354031190005964E1   5.378453079345199E1  
                        
 1.682441441441441E10   -1.726261392376378E1  -3.726900617127376E1  -1.684451115659383E1   5.481423846842377E1  -2.206471466160610E1  -6.097864298032268E1  -1.329156697808058E1  -2.317966088855711E1  
                        -1.675984655738434E1   5.573229565602991E1  -3.584581028566093E1  -1.379613530173425E2  -1.326171380939171E1  -2.760739875626908E1  -2.115538986346169E1  -1.709467161535571E2  
                        -2.211781568252143E1  -6.195853398358715E1  -1.327669208879252E1  -2.886060030348113E1  -1.734871050208909E1  -5.114989491627154E1  -1.665261109684495E1   7.191584414210566E1  
                        -1.323377152185681E1  -2.215048924686951E1  -2.112624801316595E1  -1.710200639471873E2  -1.664633633574529E1   7.286953086909010E1  -3.486330602374779E1  -6.856896899650212E1  
                        
 1.689447447447447E10   -3.707156033633755E1  -9.807711800487648E1  -1.683361929458155E1  -5.492910605110391E1  -2.197222534606446E1   1.718097593838426E2  -1.327630057131282E1  -1.326320790887597E2  
                        -1.678528040890754E1  -5.406775176001939E1  -2.281049568177328E1   1.409063702028593E2  -1.323946547645297E1  -1.367737908648575E2  -1.955814139208488E1   1.382725637828409E2  
                        -2.204103095262836E1   1.711616766433327E2  -1.322924711624864E1  -1.379857141437685E2  -2.846626831376468E1  -9.874640059373466E1  -1.669576047726007E1  -3.724079943176268E1  
                        -1.324993964882449E1  -1.312862952996557E2  -1.957750838134375E1   1.381788934393384E2  -1.667459319728185E1  -3.637767328106099E1  -2.451316899037580E1   1.738423386252059E2  
                        
 1.696453453453453E10   -1.812078185338738E1  -8.118612804796211  -1.710008736514620E1  -1.631048383578165E2  -2.321217995652747E1   4.229094359059118E1  -1.337029527750633E1   1.175657210719606E2  
                        -1.705682983940053E1  -1.620779150684114E2  -1.926429132629595E1   9.417430858844604E1  -1.338791353574928E1   1.132346097067503E2  -1.842687951056355E1   9.513377959877629E1  
                        -2.325247451242918E1   4.117878631402295E1  -1.336755051351172E1   1.120426684998982E2  -1.781652475877329E1  -1.616365554171174E1  -1.683131340647734E1  -1.455312557068409E2  
                        -1.338042188858709E1   1.186683237534897E2  -1.834916381128395E1   9.499744648631598E1  -1.684271842409092E1  -1.443792884066565E2  -2.271466013823742E1   1.168712877234694E2  
                        
 1.703459459459459E10   -1.531141391288443E1  -7.164912723739610E1  -1.695365519670722E1   8.938067029129823E1  -2.585112075667024E1  -7.794871759980083E1  -1.353536275444648E1   9.676096551450565  
                        -1.687310875425867E1   9.026991421060544E1  -2.311304655333925E1   5.477774019468461E1  -1.351298112678917E1   5.836001991660926  -1.769498821077621E1   3.668291711724643E1  
                        -2.593712193101488E1  -8.055668072428121E1  -1.354006114051131E1   4.554821027543706  -1.551903551397029E1  -7.964542414892128E1  -1.661325085761662E1   1.061442875606886E2  
                        -1.356001449908010E1   1.046444729213910E1  -1.768920280448294E1   3.646768975279604E1  -1.665632645892930E1   1.072805877188896E2  -3.093751468853292E1   5.994773240260773E1  
                        
 1.710465465465465E10   -3.109650254256637E1  -6.374996997749153E1  -1.675318646016548E1  -2.199448566531019E1  -2.778138344039439E1   1.776061831456685E2  -1.342200955167450E1  -9.885185690626339E1  
                        -1.674749832018773E1  -2.077057557561312E1  -4.054539750353859E1   6.100667624519859E1  -1.332860189747673E1  -1.026433598522568E2  -1.903357999373939E1  -1.075995892886382E1  
                        -2.820053778397359E1   1.763641579737496E2  -1.331047455538185E1  -1.038617224729618E2  -2.647720450016989E1  -1.097418102361217E2  -1.651898038688780E1  -5.379446974163896  
                        -1.341067913739731E1  -9.798881460101791E1  -1.902451216714008E1  -1.111044017030015E1  -1.654846642240685E1  -4.124172107691498  -3.028740264877886E1  -1.508520609165591E2  
                        
 1.717471471471471E10   -2.011835639895556E1  -3.672231982686519E1  -1.704952943362509E1  -1.334179177449844E2  -2.665899323238116E1   7.238827293054960E1  -1.339957247361704E1   1.519174129622517E2  
                        -1.703508762473796E1  -1.318319127318204E2  -2.793966232763381E1   1.394129469387941E2  -1.321945302362734E1   1.475950978459158E2  -1.934302263522910E1  -6.025407967930543E1  
                        -2.684831982723082E1   7.344140434227252E1  -1.318091360279966E1   1.463238804491373E2  -1.996985028241182E1  -5.491961603815327E1  -1.695114423647299E1  -1.167507834945751E2  
                        -1.330808999630604E1   1.529553210082042E2  -1.931240587526667E1  -6.007854235893269E1  -1.696612574216475E1  -1.154411242277965E2  -2.119920518316935E1   1.567147575172060E2  
                        
 1.724477477477477E10   -1.910902264899548E1  -8.507930938318751E1  -1.738546200008073E1   1.177913962855369E2  -2.518708044407516E1  -4.857918735801285E1  -1.325333555338280E1   4.276324392606709E1  
                        -1.742946662727953E1   1.192928568630627E2  -2.815156140873100E1   9.342833727848476E1  -1.318265604046864E1   3.803180701309499E1  -2.106873323443218E1  -9.621296688697420E1  
                        -2.521584812685676E1  -4.844853090212065E1  -1.316465169706869E1   3.655861905415064E1  -1.675101655663029E1  -8.501800958083121E1  -1.732233612478458E1   1.349478072275345E2  
                        -1.325035114593509E1   4.376149159352837E1  -2.111769365561055E1  -9.683147508169938E1  -1.738442661414640E1   1.361153107761362E2  -2.129882240861371E1   1.055939698081209E2  
                        
 1.731483483483484E10   -1.976402935325417E1  -1.070261579148474E2  -1.756437745868684E1   9.075913252029126  -2.454951681733870E1  -1.757095396462699E2  -1.323226589689024E1  -6.673140475406940E1  
                        -1.761575288350568E1   1.037242589655858E1  -3.136590910028487E1   1.500220600998113E2  -1.318940435992887E1  -7.135441491824720E1  -1.958766894729902E1  -1.364059366667762E2  
                        -2.462339783569464E1  -1.764760907789655E2  -1.315596109375844E1  -7.280528573754786E1  -1.792906293427328E1  -1.184850727222537E2  -1.752754396646295E1   2.646726251806021E1  
                        -1.322320814178280E1  -6.582077545535002E1  -1.955837944964740E1  -1.357321137763299E2  -1.758029284080118E1   2.776740865060352E1  -2.576067793265447E1   6.564968811591861E1  
                        
 1.738489489489489E10   -2.566206173712313E1  -6.122487764677793E1  -1.784276121931360E1  -9.982302424565137E1  -2.473512231122705E1   5.095463366922406E1  -1.318826794233442E1  -1.767615840697021E2  
                        -1.786002157478024E1  -9.889432819313701E1  -2.395585364729191E1   1.473786252477302E2  -1.314283491355126E1   1.784831186028610E2  -1.971033562234537E1   1.782556569263432E2  
                        -2.484391987414485E1   5.003489679178868E1  -1.311031938951088E1   1.772716201543999E2  -2.452523686493983E1  -7.054191438345147E1  -1.788790117197720E1  -8.201001355166410E1  
                        -1.318479568197100E1  -1.757977261208860E2  -1.963137637598480E1   1.779030005053514E2  -1.789976639293623E1  -8.072904643740606E1  -3.147024982654757E1   1.482175963763836E2  
                        
 1.745495495495495E10   -1.846656143464262E1  -9.568762972147411E1  -1.797608546410102E1   1.532123755259779E2  -2.646783219487546E1  -8.685268854270994E1  -1.336084759989644E1   7.352340923171890E1  
                        -1.796472420719587E1   1.542793246032422E2  -1.908231879065330E1   9.546796378935950E1  -1.341088011129237E1   6.899512524595168E1  -1.867931294556417E1   1.329687409396726E2  
                        -2.671859529243229E1  -8.799017032675134E1  -1.332900481960567E1   6.762943863823304E1  -1.518804324023419E1  -1.005188689882124E2  -1.799311432797174E1   1.716972092403105E2  
                        -1.331275504343862E1   7.452935458012081E1  -1.870283324746336E1   1.327957410960041E2  -1.805797509307095E1   1.730293539259511E2  -2.082106487944865E1   1.215693090319049E2  
                        
 1.752501501501502E10   -1.985699035332214E1  -1.383363597513569E2  -1.778610937387646E1   4.424699316000518E1  -3.065060473193647E1   1.274928714810373E2  -1.341887948904171E1  -3.505042719323263E1  
                        -1.775991204726858E1   4.560192479037678E1  -1.778103141748714E1   5.087729482314104E1  -1.342067990748383E1  -3.880548230775821E1  -1.925771537699174E1   8.199454332954866E1  
                        -3.127509088484379E1   1.269012428326140E2  -1.337251877271898E1  -4.033914999513551E1  -1.859848270321023E1  -1.407586357578949E2  -1.781321453243785E1   6.349553184253050E1  
                        -1.340796966021514E1  -3.355788954198040E1  -1.924233444960708E1   8.172259363145111E1  -1.781317539918454E1   6.503232912681011E1  -1.827485021164517E1   7.775097682417909E1  
                        
 1.759507507507507E10   -2.063214476975558E1  -1.195352745206191E2  -1.779765123989469E1  -6.554579101211419E1  -4.366134896082474E1  -7.105955348831364E1  -1.340862095810550E1  -1.439423901114044E2  
                        -1.775199458420200E1  -6.398104501621331E1  -1.765511217138041E1   5.061339906987636  -1.337737550665326E1  -1.481149590274573E2  -1.911294737999003E1   4.151952535126310E1  
                        -4.507088164383548E1  -7.828876192858168E1  -1.333889132758530E1  -1.494223737906846E2  -2.073001806634851E1  -1.081541019263923E2  -1.768217011481416E1  -4.583999530728678E1  
                        -1.342047357683199E1  -1.424645659699883E2  -1.913798393613928E1   4.101200818336339E1  -1.770432337361777E1  -4.472759904083493E1  -1.805995360861488E1   3.005091510052212E1  
                        
 1.766513513513513E10   -2.239545462049440E1  -1.099708877132635E2  -1.786978431911455E1  -1.761159852707434E2  -3.357555952201631E1   4.203768133100414E1  -1.338726510461172E1   1.070652131215305E2  
                        -1.783274427992906E1  -1.745791347848100E2  -1.948524450130559E1  -3.810003067207975E1  -1.331385005563951E1   1.030545855118721E2  -1.934744854860259E1  -9.269479193932586  
                        -3.340023023389647E1   4.233344172368931E1  -1.330297767882471E1   1.013956106432614E2  -1.889852950470346E1  -1.175929344773666E2  -1.768535929666445E1  -1.569095651963342E2  
                        -1.339101632241885E1   1.083731785664938E2  -1.937606586522300E1  -9.080238036619749  -1.772465693642215E1  -1.554641698041734E2  -2.193930013807654E1  -2.647448648028823E1  
                        
 1.773519519519519E10   -1.891094304269340E1  -1.345566169095361E2  -1.810957355368432E1   7.413626132298720E1  -2.974607030517703E1  -1.117431441919936E2  -1.333627714311086E1  -2.642948303419541  
                        -1.812407418120787E1   7.561938357412515E1  -2.253506225933395E1  -7.192103265195917E1  -1.328799863766217E1  -6.446725238515741  -1.946575361178170E1  -4.811150970105945E1  
                        -2.968488457483055E1  -1.101434716048414E2  -1.327594997432958E1  -7.774131004505220  -1.663854921677906E1  -1.347648081045852E2  -1.789482537469550E1   9.274462792919323E1  
                        -1.333782886704826E1  -1.492625468427606  -1.940884549607491E1  -4.819076825400779E1  -1.789504400385010E1   9.438203561814383E1  -2.478564371669741E1  -1.007418536427145E2  
                        
 1.780525525525525E10   -1.945489387142134E1   1.712710052226979E2  -1.829716390587846E1  -3.608392790313479E1  -3.015750790893094E1   1.018365589144370E2  -1.328627737358804E1  -1.120133633884910E2  
                        -1.830703590735051E1  -3.464456457485654E1  -2.753216459065384E1  -1.399599104015475E2  -1.320541043324485E1  -1.157656495730824E2  -1.908634705709761E1  -9.918369583295524E1  
                        -2.995416315132617E1   1.044865599957853E2  -1.317625631951839E1  -1.175442945884385E2  -2.191644782217089E1  -1.676836994733260E2  -1.818766597063743E1  -1.784442351584151E1  
                        -1.326569541537613E1  -1.105710277024763E2  -1.915938019496636E1  -9.934631844969032E1  -1.818468520573184E1  -1.649085600117012E1  -2.597193801507783E1  -1.699580005735561E2  
                        
 1.787531531531532E10   -2.315714470490928E1  -1.219652455077275E2  -1.870160713323410E1  -1.455548125124328E2  -3.409157100583610E1  -5.181131074236162E1  -1.322946393462616E1   1.374163746226154E2  
                        -1.876703254531162E1  -1.443166788640899E2  -2.376108219121783E1   1.736659567108506E2  -1.319631494438183E1   1.333099960615537E2  -1.981766548243889E1  -1.406446288241794E2  
                        -3.391384022377054E1  -4.870303000209227E1  -1.323654818226845E1   1.323058094658152E2  -1.979389046840949E1  -1.120485004459156E2  -1.878621946401960E1  -1.276400885561468E2  
                        -1.324886924356117E1   1.388238911607167E2  -1.979324377993373E1  -1.406830633439252E2  -1.872162431098246E1  -1.264573945181244E2  -2.509396191214227E1   1.779492236799088E2  
                        
 1.794537537537537E10   -1.880120700264622E1  -1.506037554051960E2  -1.908236692013380E1   1.057679026705339E2  -4.089883028651567E1   8.434408940560060E1  -1.342408241985226E1   2.704606416692397E1  
                        -1.916014433812858E1   1.067734922074490E2  -1.932156762300480E1   1.250072909215343E2  -1.337645792325843E1   2.388999376476141E1  -1.948788620836397E1   1.706740714447862E2  
                        -4.170480296381717E1   8.686651770707439E1  -1.331407617240995E1   2.256964830235657E1  -1.686582119794138E1  -1.594257328862392E2  -1.928415823454410E1   1.251314239327403E2  
                        -1.342093502576662E1   2.831007062932000E1  -1.953339767141638E1   1.708732189928164E2  -1.931449494747165E1   1.261863233678494E2  -1.928782836138905E1   1.636522553841058E2  
                        
 1.801543543543543E10   -1.945577114589590E1   1.641042553691028E2  -1.950688670704777E1  -1.202996336689894  -3.038088028397030E1  -1.091794688527273E2  -1.369420520261836E1  -8.226122805096031E1  
                        -1.952411775211077E1   5.955473370532197E-2  -1.453262488216782E1   9.221419859890273E1  -1.346274030996118E1  -8.567764662829828E1  -2.051787042180212E1   1.308979979899504E2  
                        -3.035002366688243E1  -1.097662677391211E2  -1.345294287362801E1  -8.722885154092160E1  -2.045539332542990E1  -1.720847723394820E2  -1.969116367265246E1   1.943630248198357E1  
                        -1.366346084799628E1  -8.117176164698456E1  -2.040350148680050E1   1.307204314467664E2  -1.967824655363816E1   2.070379795989608E1  -1.480311361079733E1   1.303709795895054E2  
                        
 1.808549549549550E10   -2.589345586583300E1   1.157800880627212E2  -1.944658228322012E1  -1.081951806957847E2  -2.513679019034557E1   1.004873722179562E2  -1.393810336927173E1   1.692879529438612E2  
                        -1.943896339243810E1  -1.069322061397089E2  -1.250846055408279E1   5.527465206637337E1  -1.368193398600983E1   1.652575251468769E2  -1.967562919608199E1   8.775457198664873E1  
                        -2.493534502718810E1   1.001544313576169E2  -1.365594458335258E1   1.635493508563478E2  -2.535804749257066E1  -1.710362118316554E2  -1.959408812636955E1  -8.591450099216640E1  
                        -1.387839392940109E1   1.705168651951572E2  -1.961104332308666E1   8.696714633975988E1  -1.958653147644571E1  -8.534097698075176E1  -1.239539737348949E1   8.335422337057136E1  
                        
 1.815555555555555E10   -1.769948444836411E1  -1.382874180383741E2  -1.961446355549676E1   1.430558367764398E2  -2.276929568152927E1  -4.506580792503046E1  -1.405487817281326E1   6.115249365882481E1  
                        -1.960457032275587E1   1.459673402294644E2  -1.225769250683453E1   1.535578990965226E1  -1.381455556874179E1   5.665131198942130E1  -1.983265497484405E1   4.349441956667241E1  
                        -2.261497124642185E1  -4.580910112662185E1  -1.386240758462756E1   5.521183287967890E1  -1.790971733669904E1  -1.481773641520740E2  -1.947567410615499E1   1.664504234483735E2  
                        -1.411172502739787E1   6.310250314985641E1  -1.985293881683806E1   4.293183080876391E1  -1.953838021255913E1   1.674157383272824E2  -1.181551634728788E1   3.774512375176906E1  
                        
 1.822561561561562E10   -1.625231595711306E1   1.381427147777591E2  -1.946154803981996E1   3.749963209005174E1  -2.246836479920518E1   1.737251132736743E2  -1.410311966703744E1  -4.617941250322282E1  
                        -1.929185661113871E1   3.944725746094571E1  -1.313798519147354E1  -2.848325316235205E1  -1.381940017384654E1  -5.099513099963017E1  -1.868793487118597E1  -3.688605248659758  
                        -2.230644752768896E1   1.725820733654224E2  -1.387894771336334E1  -5.208113901775678E1  -1.600589659845094E1   1.505458774052123E2  -1.902440494318987E1   5.957590209508831E1  
                        -1.413181728767129E1  -4.411149508386787E1  -1.878925236156702E1  -3.460801172546754  -1.907442072848504E1   6.013469865206388E1  -1.276681197301973E1  -1.328102083764826E1  
                        
 1.829567567567567E10   -2.101062855962070E1   2.759999770620737E1  -1.894313403422470E1  -7.450021575069118E1  -2.398504302320973E1   3.473623605626190E1  -1.378925615428245E1  -1.541607583570887E2  
                        -1.895794335397886E1  -7.244024885840830E1  -1.606745459883678E1  -7.195283728228927E1  -1.361600414674331E1  -1.596307335322398E2  -1.936021502001750E1  -5.711624427455984E1  
                        -2.396831040052032E1   3.349641046927811E1  -1.357340722864253E1  -1.607725835935199E2  -3.915044602180459E1   2.310119870428431E1  -1.861202318712313E1  -5.390739287618607E1  
                        -1.381963002219837E1  -1.524791573837493E2  -1.937101305294079E1  -5.732659356963181E1  -1.868381611119131E1  -5.229962379594486E1  -1.520394065489171E1  -6.261603574008247E1  
                        
 1.836573573573573E10   -2.052719553239654E1  -1.664739423267800E2  -1.937208987241690E1   1.722436221425527E2  -2.914025572532038E1  -8.728213798746482E1  -1.353564533869667E1   9.488369736183556E1  
                        -1.931230227039155E1   1.740609379572264E2  -1.790115865970109E1  -1.160180193680977E2  -1.349079312931840E1   8.995736327327516E1  -2.033409877027343E1  -1.013496668882622E2  
                        -2.905342736938955E1  -8.791719005433762E1  -1.346968681957268E1   8.842848518603638E1  -1.791293676423529E1  -1.634810739695298E2  -1.908057176926725E1  -1.675894382981117E2  
                        -1.353626678548136E1   9.608118791327239E1  -2.031702961978050E1  -1.011914001593115E2  -1.909814202399568E1  -1.661234777840673E2  -1.802592972644567E1  -9.871479429437902E1  
                        
 1.843579579579580E10   -1.705397299809216E1   1.321183319465293E2  -2.015691866572422E1   6.275671636660794E1  -2.982749631831942E1  -1.522652351697681E2  -1.363266736092198E1  -1.659646214554364E1  
                        -2.014986322153689E1   6.394974450715663E1  -1.745081610112296E1  -1.456244387291280E2  -1.356034492223746E1  -2.074853059945481E1  -2.159763912823257E1  -1.428137275845471E2  
                        -2.974486426629372E1  -1.531322909519764E2  -1.351953030348613E1  -2.181473832335305E1  -1.723259949214616E1   1.384484058487236E2  -2.001770595268299E1   8.275493291572637E1  
                        -1.358303328109376E1  -1.556283554672043E1  -2.154656351592330E1  -1.429132410313206E2  -2.006891931310775E1   8.401076933350348E1  -1.756805734787250E1  -1.231311166150199E2  
                        
 1.850585585585585E10   -1.932856775091601E1   3.751626827619057E1  -2.080037386127832E1  -4.323727987223220E1  -2.373654487511826E1   9.570924375243467E1  -1.398187435135387E1  -1.275299725045879E2  
                        -2.082084492834557E1  -4.211746699555112E1  -1.424258476047780E1   1.666294091720885E2  -1.375865786318039E1  -1.315943356182083E2  -2.098383993521501E1  -1.770041483671193E2  
                        -2.378336174472536E1   9.464323491340991E1  -1.368667726085770E1  -1.331109947404998E2  -2.397546779036972E1   7.283408411226954E1  -2.082709055046588E1  -2.285324759226497E1  
                        -1.390630095526485E1  -1.266574424627278E2  -2.092351147518273E1  -1.769263618761430E2  -2.082950183513650E1  -2.093046342789171E1  -1.357617024617220E1  -1.667591613917963E2  
                        
 1.857591591591591E10   -1.989588912622657E1  -9.144337153052615E1  -2.102772748910140E1  -1.483257535656856E2  -2.059437445315727E1  -3.716292739967275E1  -1.450613722251268E1   1.230613500602195E2  
                        -2.110816481388684E1  -1.468390528848214E2  -1.170106599402392E1   1.156898485648034E2  -1.426663877180380E1   1.185367889380104E2  -2.029918321632191E1   1.366700503107976E2  
                        -2.063446475535258E1  -3.777480941630051E1  -1.415032570582135E1   1.170752514998109E2  -1.937743649856608E1  -1.239516778469908E2  -2.117104243715710E1  -1.266265397221873E2  
                        -1.449701246558740E1   1.241228843136854E2  -2.022517310680681E1   1.363634180105897E2  -2.121511808373373E1  -1.254171319682876E2  -1.112769884957449E1   1.415931116078015E2  
                        
 1.864597597597598E10   -1.462260914112437E1   1.208969002074658E2  -2.098971005840338E1   1.088062824923015E2  -1.932670923524718E1  -1.717046749676755E2  -1.499784088250272E1   1.653144681423282E1  
                        -2.093230904059631E1   1.099548943110409E2  -1.042421768325333E1   6.453385862196936E1  -1.471450225354332E1   1.192922028664919E1  -1.992558718593080E1   9.228143082338823E1  
                        -1.934964694559883E1  -1.722177728064619E2  -1.457096209666586E1   1.002742615082494E1  -1.457966567206198E1   1.387446739929878E2  -2.105954209322487E1   1.310661233401981E2  
                        -1.496630851228511E1   1.773938426987072E1  -1.988223710851811E1   9.206459838793406E1  -2.111271351257635E1   1.327635624230188E2  -9.611191987103974   9.110275410818362E1  
                        
 1.871603603603603E10   -1.555821361059665E1   1.695246568357966E1  -2.011850326512004E1   2.550970882050078  -1.897646379182765E1   5.370799200473697E1  -1.514921969662251E1  -8.838525554068457E1  
                        -2.014955756450291E1   4.104374331193297  -1.013953597454176E1   1.444260218106409E1  -1.471742727309995E1  -9.412934781307355E1  -1.924692296274169E1   4.308064592401089E1  
                        -1.900049876270623E1   5.341916878672519E1  -1.463824458264307E1  -9.631200862278769E1  -1.823897418078002E1   2.754965443507162E1  -2.013571100628489E1   2.598235698336839E1  
                        -1.520937196425627E1  -8.686462625702606E1  -1.920890654089386E1   4.236669196728930E1  -2.016266665755024E1   2.777805458383009E1  -9.381435282409370   4.445806753144750E1  
                        
 1.878609609609610E10   -1.708480387467683E1  -1.055244249707016E2  -1.948074908415516E1  -1.089723910599120E2  -2.010597501655987E1  -8.236252434027573E1  -1.476455617543171E1   1.658539665895978E2  
                        -1.952661361701112E1  -1.069928062239676E2  -1.110239014785189E1  -2.772126665387678E1  -1.453151621227032E1   1.589456827330884E2  -1.968657244396906E1  -9.491302380963639  
                        -2.002817965621006E1  -8.278609967655433E1  -1.448210123346622E1   1.566805037678399E2  -1.733563645739551E1  -1.226814512328911E2  -1.928381864986163E1  -8.603215021061398E1  
                        -1.485289293104971E1   1.677313177648467E2  -1.971647767560749E1  -1.004024232092667E1  -1.932901800512325E1  -8.418653776551430E1  -1.053709526144223E1   2.807296681529335E-1  
                        
 1.885615615615616E10   -1.948880939973309E1   1.062352138893320E2  -1.929834944422223E1   1.367455551210753E2  -2.378652094903973E1   1.516961656852595E2  -1.421941285869377E1   5.678852243543378E1  
                        -1.936047761713913E1   1.392241236461272E2  -1.361813354896219E1  -6.309999285262650E1  -1.415301360743867E1   5.058824165845464E1  -2.126853132171545E1  -6.003901508587919E1  
                        -2.366816240900743E1   1.501288600852860E2  -1.419673951829583E1   4.812906652224019E1  -1.692044158709515E1   1.329849101109557E2  -1.921122677226227E1   1.595838119251797E2  
                        -1.432047107526810E1   5.834460615272853E1  -2.134255459046783E1  -6.069143487593767E1  -1.920256840914951E1   1.618924393940379E2  -1.283985825124718E1  -3.666407762881096E1  
                        
 1.892621621621621E10   -1.578613814009119E1   2.595598373591550E1  -2.002321141287785E1   2.326631820835933E1  -2.615278167322436E1   6.331177108549398E1  -1.392319352935807E1  -5.479887123899480E1  
                        -2.005130409909041E1   2.529857117418128E1  -1.430463861528281E1  -8.400530632873202E1  -1.387372496720590E1  -6.081193372790232E1  -2.409620620145745E1  -9.057794594541080E1  
                        -2.646188037348969E1   6.202006315632909E1  -1.391329635289550E1  -6.255978702725783E1  -1.846243469817319E1   3.433971974103699E1  -1.980511345592001E1   4.681816964865615E1  
                        -1.398934330729244E1  -5.373338262710316E1  -2.416422635468130E1  -9.123070169847257E1  -1.981478466545903E1   4.851145513158237E1  -1.455886505665447E1  -5.812847097217040E1  
                        
 1.899627627627628E10   -1.701610576955680E1  -8.076741406288308E1  -2.101660895155046E1  -8.351030778892573E1  -2.240186608588545E1  -4.165817741553859E1  -1.412604239714691E1  -1.666410579057246E2  
                        -2.104878530474987E1  -8.172604948419422E1  -1.347030547497746E1  -1.222664638675469E2  -1.407234276370085E1  -1.728961871105713E2  -2.185355522724898E1  -1.168101091500678E2  
                        -2.250883229108758E1  -4.168956337968101E1  -1.409854539644362E1  -1.745728884748359E2  -1.750069231345216E1  -8.612942729207477E1  -2.072112284789497E1  -6.108596519895468E1  
                        -1.412533862967788E1  -1.653374639948545E2  -2.190378992811187E1  -1.163378441511964E2  -2.070577935736074E1  -5.906580693155959E1  -1.314762757301459E1  -9.496950854571932E1  
                        
 1.906633633633633E10   -1.746089531513223E1   1.607708290083239E2  -2.121431147485923E1   1.739567904439762E2  -2.001777109871332E1  -1.687895625517053E2  -1.451647500666797E1   8.304854270904107E1  
                        -2.133303707458146E1   1.748811603014524E2  -1.223249377143852E1   1.778405043173995E2  -1.459660582605517E1   7.730723056898913E1  -1.997586977415654E1  -1.655107810199343E2  
                        -2.000491437574938E1  -1.687946780454222E2  -1.457411782118564E1   7.602617337519702E1  -1.596943037298436E1   1.588494447643791E2  -2.119692499314990E1  -1.650299820047416E2  
                        -1.444678455167701E1   8.416696633099888E1  -1.991567539091527E1  -1.651292973513517E2  -2.119323142416206E1  -1.636992669201779E2  -1.176521614616683E1  -1.490083006406670E2  
                        
 1.913639639639640E10   -1.458826780973251E1   6.907585475466783  -2.086185130386155E1   6.867710259766962E1  -1.893909313467615E1   5.989893529312638E1  -1.504992209691757E1  -2.521253454280821E1  
                        -2.089665334797146E1   7.017769098766105E1  -1.099880679280870E1   1.199150024820489E2  -1.498770915538099E1  -3.000440715763643E1  -1.930602675168870E1   1.430514125723294E2  
                        -1.891644357641403E1   5.921650533662928E1  -1.493225428316434E1  -3.141443047763159E1  -1.554247003021334E1   2.940578419529192E1  -2.102519873886642E1   9.174514848924089E1  
                        -1.497477181222517E1  -2.363963234014983E1  -1.917868076416978E1   1.431001643862744E2  -2.100675959843803E1   9.356437820359135E1  -1.059009481525387E1   1.556469849363744E2  
                        
 1.920645645645646E10   -1.522825198560414E1  -8.695345154610969E1  -2.028424770043604E1  -3.797366309109011E1  -1.880820343031411E1  -7.266841554766619E1  -1.535571614650256E1  -1.308054279329411E2  
                        -2.026749883038480E1  -3.601675411119781E1  -1.068801349376740E1   6.655425918553492E1  -1.523545466169494E1  -1.364772057486757E2  -1.913650266504462E1   9.063214420584968E1  
                        -1.885266030295094E1  -7.326797167655015E1  -1.517456353187943E1  -1.383072482674676E2  -1.548062488875052E1  -9.290238864607176E1  -2.033458046435603E1  -1.408227421113512E1  
                        -1.526127246620577E1  -1.293688137204936E2  -1.911402088742333E1   8.981581877867754E1  -2.027668671423201E1  -1.330760780616958E1  -1.014417542053664E1   1.037471909840776E2  
                        
 1.927651651651651E10   -1.863958601539374E1   1.559420605588484E2  -1.952643101813675E1  -1.482711412854705E2  -1.970401389772776E1   1.531491507930546E2  -1.520580731942709E1   1.239347689341774E2  
                        -1.935824654975147E1  -1.461834185024966E2  -1.117299531133951E1   2.072310870537720E1  -1.517639823999016E1   1.184682507832456E2  -2.007249745649694E1   3.772495296404656E1  
                        -1.978372212450083E1   1.525541169532945E2  -1.518287256084179E1   1.161227325109551E2  -1.710975895910958E1   1.531955365022537E2  -1.962540825668596E1  -1.244304394692122E2  
                        -1.524268329876800E1   1.255028153893491E2  -2.010710855186588E1   3.664557482286252E1  -1.972591757683960E1  -1.232383459425762E2  -1.029828330156618E1   5.852090503583953E1  
                        
 1.934657657657658E10   -2.354334186606746E1   1.224403271798706E1  -1.910300657062948E1   9.790659609291663E1  -2.277634382889808E1   2.245031787858672E1  -1.481651782522106E1   1.703186573861895E1  
                        -1.907244820788942E1   9.939026754182051E1  -1.338096171492435E1  -1.618995695921639E1  -1.465776683676178E1   1.099971448684399E1  -2.209487758185377E1  -1.032536217293511E1  
                        -2.290818203358540E1   2.209014149716075E1  -1.468651787043850E1   9.342367821689292  -1.893449837743578E1   2.363015545946567E1  -1.931347108078963E1   1.231156775547631E2  
                        -1.484953197793558E1   1.833302995678161E1  -2.224808336419865E1  -1.090619476516093E1  -1.934799248660398E1   1.246061171522557E2  -1.142400166358676E1   1.758042916835886E1  
                        
 1.941663663663664E10   -1.641548845100746E1  -7.624128300730214E1  -1.957065026842927E1  -1.652764275554196E1  -2.720813816002443E1  -7.702170632450385E1  -1.440730554464343E1  -9.245416705235596E1  
                        -1.951743487154313E1  -1.477384497008891E1  -1.508603325606135E1  -4.332077695295853E1  -1.427332869024730E1  -9.944752475124633E1  -2.513951246688217E1  -3.795690352156623E1  
                        -2.713763662124320E1  -7.719679531932707E1  -1.431390258351456E1  -1.011442285539233E2  -1.766163207478033E1  -8.072665644131196E1  -1.947616898330649E1   1.074689058276335E1  
                        -1.442659504558063E1  -9.161056255830421E1  -2.508496969032331E1  -3.816575184989819E1  -1.952808161393382E1   1.176319250061912E1  -1.286114780914735E1  -1.274660170679705E1  
                        
 1.948669669669669E10   -1.646340704690714E1  -1.695671405943992E2  -2.032641767158443E1  -1.251352451217928E2  -2.427045133502366E1  -1.698755558233294E2  -1.423709368872132E1   1.563320011576489E2  
                        -2.029192184408975E1  -1.238904510554660E2  -1.381448980333908E1  -7.353153357503174E1  -1.427156533049492E1   1.494407886976528E2  -2.218744191373342E1  -5.847810149692187E1  
                        -2.437887004124832E1  -1.706455947121391E2  -1.430899560484383E1   1.477792586913756E2  -1.627012199344530E1   1.794312304566188E2  -2.003831302183565E1  -9.942027773614424E1  
                        -1.427256117173674E1   1.573725558349182E2  -2.227865037703224E1  -5.890992636175354E1  -2.006653820474651E1  -9.774166687943109E1  -1.287588604983027E1  -4.258910451008963E1  
                        
 1.955675675675676E10   -1.978631541638253E1   7.520513549996983E1  -2.051299788292476E1   1.282965587905695E2  -2.143373009697040E1   6.334039908619134E1  -1.428065730455662E1   4.565699604375519E1  
                        -2.052848493745552E1   1.297617068027771E2  -1.289089629636698E1  -1.210722922451774E2  -1.446453546439482E1   3.979816673043638E1  -1.959927642969962E1  -1.095136020720674E2  
                        -2.156666192294142E1   6.349689778787380E1  -1.447216418383179E1   3.762350015886971E1  -1.856008367023465E1   5.875186524390759E1  -2.032443064840570E1   1.530433952014608E2  
                        -1.425307371835273E1   4.728624258108304E1  -1.955016725349814E1  -1.095072308697936E2  -2.034032499199109E1   1.554297867780163E2  -1.260637014470149E1  -8.067932838889504E1  
                        
 1.962681681681681E10   -1.706051071771240E1  -9.696478043276758E1  -2.043777408150703E1   2.205424848145017E1  -2.083706544028209E1  -7.086514764942484E1  -1.454170096539758E1  -6.393428448847732E1  
                        -2.051565084284740E1   2.251147804205122E1  -1.226280909219001E1  -1.736273913357799E2  -1.474346366855803E1  -6.930971537178718E1  -1.869263409262334E1  -1.638809808193074E2  
                        -2.087240647665701E1  -7.083503199286311E1  -1.475336103479214E1  -7.082418898852689E1  -1.667009516863439E1  -8.480724863945486E1  -2.033466280443901E1   4.660082561224903E1  
                        -1.445968467831410E1  -6.271476634856133E1  -1.871126229020132E1  -1.638232307249884E2  -2.032880756194767E1   4.854973775437717E1  -1.273539537533834E1  -1.282509591651842E2  
                        
 1.969687687687688E10   -1.647158244057585E1  -1.718067566466129E2  -1.988208022988476E1  -8.529299707530142E1  -2.144808785757515E1   1.558012240708112E2  -1.475307380692753E1  -1.711454736607428E2  
                        -2.009457061693856E1  -8.409263217523461E1  -1.307584751416956E1   1.330375169078204E2  -1.500400492438235E1  -1.757892527195930E2  -1.880434590907441E1   1.399156355234041E2  
                        -2.147149240316154E1   1.559683577464900E2  -1.485802041319017E1  -1.772741326744950E2  -1.596314962661112E1   1.675440535479928E2  -1.990874392018504E1  -6.101454223898082E1  
                        -1.474653064635664E1  -1.696775141734114E2  -1.873408810534226E1   1.405852979088090E2  -1.995098641763682E1  -5.895496206157589E1  -1.329591162418610E1   1.797207674232155E2  
                        
 1.976693693693694E10   -2.359419913707837E1   1.049395318592151E2  -1.943764794654397E1   1.626944885469906E2  -2.314415014934687E1   2.092537857710406E1  -1.468960265322585E1   8.097739697860939E1  
                        -1.958117354788813E1   1.648328861397882E2  -1.427469693534559E1   7.659007878968137E1  -1.478622132240184E1   7.746136231682330E1  -2.035912210427700E1   8.898999495784848E1  
                        -2.320396595871550E1   2.086053374188095E1  -1.468831147775445E1   7.497478192874415E1  -2.236280451627056E1   6.480526882675238E1  -1.973377083430940E1  -1.712264968201800E2  
                        -1.464887305481048E1   8.266766657077973E1  -2.023242720202083E1   8.773957166901691E1  -1.969143810984484E1  -1.698739488189488E2  -1.362235200528414E1   1.271191050653465E2  
                        
 1.983699699699699E10   -3.706021631914194E1  -6.854314265546820E1  -1.943615367517842E1   4.998613313657823E1  -2.768509965117043E1  -1.103366378218162E2  -1.455097810870368E1  -2.704375946847759E1  
                        -1.942673162676543E1   5.242212768515830E1  -1.549882719870946E1   2.738250721663835E1  -1.452859388059149E1  -3.080655833126020E1  -2.197952636515729E1   4.663697051354875E1  
                        -2.769133813428069E1  -1.105852201596507E2  -1.445844836301018E1  -3.332855919009241E1  -2.297106055757138E1  -9.915265729215599E1  -1.959536146486458E1   7.805166658636880E1  
                        -1.457314676185870E1  -2.541474703973832E1  -2.196435902240647E1   4.561849092210125E1  -1.966555007799268E1   7.999323575609176E1  -1.424393214889337E1   7.501449371189419E1  
                        
 1.990705705705706E10   -1.638040661113240E1  -1.653576700813523E2  -1.966442410309877E1  -6.193185401403731E1  -3.401524015968824E1   1.648398899633924E2  -1.440524739072911E1  -1.359655694969425E2  
                        -1.977087485234998E1  -5.972659305609824E1  -1.639088281392529E1  -8.859031531427704  -1.428082753933082E1  -1.401546395232811E2  -2.340511662090499E1   1.620027518930794E1  
                        -3.434392538734412E1   1.656082442037184E2  -1.420972529298773E1  -1.426095835572126E2  -1.854999234609731E1  -1.727050221266291E2  -1.970305941433696E1  -3.287307072757544E1  
                        -1.443051970307366E1  -1.344436297988057E2  -2.333111360900426E1   1.487781027565890E1  -1.970898942270347E1  -3.126310332554754E1  -1.474657576745531E1   3.294715027100433E1  
                        
 1.997711711711712E10   -1.606538269079590E1   1.250470252474535E2  -2.004570752023949E1  -1.720652004319952E2  -2.904688984714656E1   7.748577818130936E1  -1.425242643985247E1   1.150636871095299E2  
                        -2.014130160162502E1  -1.684796618684517E2  -1.526853517571872E1  -3.862874345014667E1  -1.413352513115015E1   1.101102598970210E2  -2.129156537546624E1  -1.693926384276509E1  
                        -2.902095424615641E1   7.855832678355418E1  -1.409410816264112E1   1.068766673293875E2  -1.893904591307335E1   1.103117750728035E2  -1.984628765254300E1  -1.431873159023909E2  
                        -1.432354650591628E1   1.167501406987933E2  -2.128432041886085E1  -1.785576799268604E1  -1.985377988398919E1  -1.409238365814013E2  -1.575866696860902E1  -2.368679795222473  
                        
 2.004717717717717E10   -2.783056906826517E1  -1.398132845440611E1  -2.033174039912863E1   7.906788371658570E1  -2.645466172817285E1  -5.664835860051743E1  -1.408183926978561E1   5.288963294063171  
                        -2.027796882728189E1   8.145679390513729E1  -1.456713553987774E1  -6.914876252767080E1  -1.411320909606560E1  -1.079306230785398E-1  -2.017624854981636E1  -6.519006398418482E1  
                        -2.630926808291395E1  -5.615689556818113E1  -1.416755970861520E1  -2.674910845820485  -2.607226432393297E1  -6.595437522808533E1  -2.006579586351449E1   1.067833620057323E2  
                        -1.409025151542683E1   6.737903598262287  -2.021460379041458E1  -6.531612468027025E1  -2.010260511564104E1   1.085123716718275E2  -1.633311449182612E1  -3.101802525294769E1  
                        
 2.011723723723724E10   -1.852843191180767E1   1.760915186271230E2  -2.042996396922819E1  -2.914867016459810E1  -2.705432946914879E1   1.630018345537151E2  -1.413858907925522E1  -1.048874356961849E2  
                        -2.049884592370733E1  -2.675602050227266E1  -1.488901038181639E1  -1.107940342647793E2  -1.424722169171034E1  -1.096779342942027E2  -1.918731533475793E1  -1.137054271961595E2  
                        -2.714099936299264E1   1.633443215812982E2  -1.423240732453729E1  -1.116221793645625E2  -1.850876724221494E1   1.784002981747286E2  -2.026081471891346E1  -1.463643290525948  
                        -1.414266416545472E1  -1.033077173641811E2  -1.919160032797655E1  -1.137956771644440E2  -2.032627027561779E1   2.750340057603928E-1  -1.606835850655477E1  -6.616827194433243E1  
                        
 2.018729729729730E10   -1.641221736496379E1   1.257933551095196E2  -2.044227190786112E1  -1.387939115968869E2  -3.042466045533092E1   2.192560903223779E1  -1.426537231861206E1   1.458685380480811E2  
                        -2.035993695167581E1  -1.366644325491038E2  -1.630466766064438E1  -1.541027698575632E2  -1.423936459117098E1   1.422628966313191E2  -1.955449826888791E1  -1.667448026726387E2  
                        -3.051580030183511E1   2.367627972910542E1  -1.430606856034952E1   1.399517123159920E2  -2.162465296968502E1   9.994158319557295E1  -2.040278369661624E1  -1.109138542395187E2  
                        -1.421544964346187E1   1.479276255553728E2  -1.961231869827257E1  -1.672100619255525E2  -2.035648015100856E1  -1.088147236893671E2  -1.634445046609227E1  -1.036811372098433E2  
                        
 2.025735735735736E10   -2.172973870632560E1   7.410941977324089E1  -2.040254750647879E1   1.120924685953508E2  -3.890034491796165E1  -1.236898191192759E2  -1.427594592019282E1   3.774593141652279E1  
                        -2.037885876282229E1   1.134563729783490E2  -1.907091306331442E1   1.519894294421491E2  -1.414213159326542E1   3.293822969099534E1  -2.000052104189938E1   1.497835546395005E2  
                        -3.904009758465369E1  -1.194743994055342E2  -1.410340338865765E1   3.109473941789353E1  -3.664385470414921E1   8.414579513928295E1  -2.053058439429244E1   1.407397631526634E2  
                        -1.415393313409019E1   3.943388438243395E1  -1.998852532474837E1   1.495321818920870E2  -2.053583661614401E1   1.421759673692470E2  -1.707055138443115E1  -1.585127394420917E2  
                        
 2.032741741741742E10   -2.793425217743430E1  -1.100843221941296E2  -2.036956110964737E1   9.410050391542568E-1  -4.180360109681061E1  -5.785845581802539E1  -1.417644679589591E1  -7.126756474031998E1  
                        -2.042402037483982E1   2.691028455814859  -2.040694894190133E1   8.653826622797918E1  -1.411103921534582E1  -7.605623372653936E1  -2.036322325772775E1   1.024366447636340E2  
                        -4.165209910729452E1  -6.101734228255179E1  -1.408379086683758E1  -7.852995565607765E1  -2.815150293552825E1  -1.640572023064307E2  -2.050628568960556E1   3.157008808713193E1  
                        -1.412939125593333E1  -7.018732301157846E1  -2.034474754739117E1   1.016370107902556E2  -2.051099853471385E1   3.311804290526951E1  -1.858957389270291E1   1.456706701682177E2  
                        
 2.039747747747747E10   -1.595639600991704E1   1.250007206456782E2  -2.072467682041641E1  -1.100263538565168E2  -3.294281861503244E1   1.541213669224510E2  -1.425165834757083E1   1.791132236939791E2  
                        -2.068039008014045E1  -1.073933385352441E2  -2.056718413978512E1   3.873911561092633E1  -1.410397714881569E1   1.747193320679035E2  -2.075420395057577E1   6.257023075910402E1  
                        -3.273215043800552E1   1.518780760910990E2  -1.407656042177644E1   1.721540304570846E2  -2.070783700020929E1   1.306240155976576E2  -2.059049889717064E1  -7.745238378380363E1  
                        -1.425474306907653E1  -1.793401891678219E2  -2.076947995030408E1   6.187552473674252E1  -2.062373477909884E1  -7.589138254027871E1  -2.042416435652138E1   8.726105462194605E1  
                        
 2.046753753753754E10   -1.646663596103779E1   5.633538874155659E1  -2.087562014653190E1   1.410812403591463E2  -3.082225671719744E1   1.522095892887903E1  -1.421335442395486E1   7.128623505793880E1  
                        -2.075502089943826E1   1.434215465115385E2  -2.130000760544908E1  -7.898241784137949  -1.401749671830209E1   6.578275259955565E1  -2.066598672440654E1   1.565211043744104E1  
                        -3.073076480952477E1   1.363563703046224E1  -1.408359069324890E1   6.338351733695594E1  -2.186637231198777E1   3.990375347035248E1  -2.050824288131911E1   1.726555120787727E2  
                        -1.421534350293788E1   7.248400795254048E1  -2.068586623636589E1   1.481837380488363E1  -2.054085862374856E1   1.742647807288446E2  -2.401299629109406E1   3.031499536777175E1  
                        
 2.053759759759760E10   -3.219513935170859E1  -1.045249163735513E2  -2.096538913630723E1   3.030821541136052E1  -3.222747549092510E1  -1.195115044652478E2  -1.398392028416085E1  -3.840298430309907E1  
                        -2.096434078110837E1   3.260931652095587E1  -2.078454171054915E1  -3.366272813233442E1  -1.393367442551929E1  -4.398963027230660E1  -2.126100067180792E1  -2.278274549127400E1  
                        -3.216568376568384E1  -1.204821892270494E2  -1.392260881048374E1  -4.604810186460994E1  -2.940076049505264E1  -1.361143697866352E2  -2.073144390140658E1   6.180587949653381E1  
                        -1.400963410867402E1  -3.674528230775671E1  -2.131792162809812E1  -2.362087818130556E1  -2.073473259009701E1   6.343363577234420E1  -2.650456699195012E1   3.264170296647608E-1  
                        
 2.060765765765766E10   -2.317028533105230E1   1.163798852561149E2  -2.134343388689726E1  -7.996935085836134E1  -3.733445050801726E1   1.400358050975299E2  -1.397624673474969E1  -1.484201836932966E2  
                        -2.133376183706763E1  -7.726104839012605E1  -2.042947176504586E1  -6.521696425821814E1  -1.396820705835915E1  -1.537010515276699E2  -2.058482259729350E1  -6.476015269601538E1  
                        -3.720634687101710E1   1.400627046476660E2  -1.399246727296246E1  -1.562098241444859E2  -2.397122385895545E1   1.144520599355044E2  -2.097094559535267E1  -4.757396595756426E1  
                        -1.397520179108175E1  -1.469462970106914E2  -2.060050873349791E1  -6.584526820289153E1  -2.104875023059578E1  -4.577585628704003E1  -2.759379932825510E1  -2.753223207951987E1  
                        
 2.067771771771772E10   -1.771862458080475E1   4.992834246261474E1  -2.178188600169259E1   1.717449411866568E2  -3.273045182125417E1   6.663505171863270E1  -1.407190750197723E1   1.019721912699390E2  
                        -2.166278498665229E1   1.737522415250526E2  -1.868427757424231E1  -1.060881095537861E2  -1.399683248482128E1   9.680655530987281E1  -2.011372405400667E1  -1.062306272335216E2  
                        -3.270990813472000E1   6.547592510960274E1  -1.408815798676110E1   9.486803459813687E1  -2.219285052043026E1   4.902707329177189E1  -2.126089841831808E1  -1.559302899181739E2  
                        -1.403888580232309E1   1.036007432136190E2  -2.021870594224946E1  -1.065746267924922E2  -2.128177477909834E1  -1.543993441802559E2  -2.324512361910849E1  -6.101356295043529E1  
                        
 2.074777777777778E10   -2.088199701568824E1  -2.162658171327075E1  -2.178023930693484E1   6.411285525650506E1  -2.795507932982082E1  -5.700317226954915E1  -1.409401382610683E1  -6.931202582104412  
                        -2.174074538661605E1   6.568612069947075E1  -1.801129525174917E1  -1.502140688235173E2  -1.408877231867195E1  -1.231057276655239E1  -1.886786560881555E1  -1.541442138797279E2  
                        -2.795612745787509E1  -5.821654738122308E1  -1.407986953288960E1  -1.401273880762254E1  -2.613769986779129E1  -1.571697709405105E1  -2.132577546676455E1   9.565459703111841E1  
                        -1.409266792430216E1  -5.324828296911748  -1.885734566966383E1  -1.540844262164761E2  -2.136882206974718E1   9.762327948248398E1  -2.294894818571996E1  -1.107053469087302E2  
                        
 2.081783783783784E10   -2.312425608365676E1   1.795532240465541E2  -2.178611904369346E1  -4.577301244427395E1  -2.594651472020489E1   1.694369028224481E2  -1.406427427660544E1  -1.165776746871549E2  
                        -2.176263131898892E1  -4.419947616613171E1  -1.997676702920405E1   1.636991177633107E2  -1.406795891120993E1  -1.213599603333844E2  -1.881852324951802E1   1.540202761704610E2  
                        -2.603643877922999E1   1.685350585168371E2  -1.403965663757978E1  -1.233920188600629E2  -2.579314742345621E1   1.469036792467088E2  -2.147676407343020E1  -1.329215577813743E1  
                        -1.407592970260288E1  -1.143397166176445E2  -1.881540944251304E1   1.538468030513964E2  -2.149136613511088E1  -1.203982978836473E1  -2.458981454093159E1  -1.613643596523925E2  
                        
 2.088789789789790E10   -1.757487682661114E1   3.868029883391988E1  -2.185444696886951E1  -1.547138979265619E2  -2.592459536108753E1   3.961363786520640E1  -1.420837319528812E1   1.345279310885343E2  
                        -2.185324618480769E1  -1.531322334850552E2  -2.427614936914425E1   1.069475571620597E2  -1.414468025547283E1   1.297153926907928E2  -1.909018558625236E1   1.036676196390210E2  
                        -2.598406915262989E1   3.905290624079255E1  -1.413893365869447E1   1.277656158221114E2  -1.977961717349468E1   4.523581692892841E1  -2.149192390649301E1  -1.213719800415853E2  
                        -1.415709482295017E1   1.362962875264068E2  -1.910776794840644E1   1.030988215604406E2  -2.150295979092111E1  -1.197490212830666E2  -2.938803522358617E1   1.298197246464195E2  
                        
 2.095795795795795E10   -1.700254945324683E1  -3.144070754975008E1  -2.177675868214471E1   9.483722433480328E1  -2.680580635592840E1  -8.391730706293080E1  -1.410686742172748E1   2.655255159547322E1  
                        -2.173806106560782E1   9.692542170265510E1  -3.538460392558336E1   2.223272710627949E1  -1.407859812312404E1   2.108542744951657E1  -2.065321293451246E1   5.401655506754794E1  
                        -2.683843195145760E1  -8.361147202251974E1  -1.398923034408157E1   1.918835322093806E1  -2.252134680930211E1  -4.441609036323101E1  -2.139807087412400E1   1.279286456446905E2  
                        -1.412537109372522E1   2.815283468104395E1  -2.063378075647053E1   5.339628220879477E1  -2.142745354038452E1   1.293988283685895E2  -3.836167598754849E1   7.273349814689283  
                        
 2.102801801801802E10   -3.288229339112898E1  -1.400962337414293E2  -2.198601422730095E1  -1.693824626250231E1  -2.788649693095665E1   1.633205859393102E2  -1.395295528197170E1  -8.298671814358117E1  
                        -2.204528709177564E1  -1.471327481318536E1  -3.395402655237757E1  -5.216602331781349E1  -1.394705847914510E1  -8.851010782023356E1  -2.207572771474520E1   2.031197810233521E1  
                        -2.788169054386824E1   1.622260801568318E2  -1.393949351097234E1  -9.115590826586447E1  -2.774101189137626E1   1.419186442840659E2  -2.170038395321909E1   1.761950264844657E1  
                        -1.396707579912038E1  -8.170330233475227E1  -2.208141734157439E1   1.926059586908562E1  -2.174422302008368E1   1.927001708432600E1  -3.287866673282285E1  -4.476881977811443E1  
                        
 2.109807807807808E10   -2.672425230178806E1   4.969446096471219E1  -2.260559766406276E1  -1.268951726350389E2  -2.718005184215502E1   5.858510660757056E1  -1.399809879346021E1   1.665845447493635E2  
                        -2.254063016827143E1  -1.244666258186667E2  -2.833178381330661E1  -2.654469659630701E1  -1.397127502125558E1   1.612768932742334E2  -2.162828125682781E1  -1.274209118382339E1  
                        -2.727385551712228E1   5.831225391230739E1  -1.399532151462245E1   1.597277417132041E2  -2.368510562623044E1   3.866697032724599E1  -2.205727480487439E1  -9.080938016053268E1  
                        -1.400213922068575E1   1.681800531443609E2  -2.159435653213460E1  -1.266840783566404E1  -2.201580182193795E1  -8.951954686802850E1  -3.342601570835932E1  -5.112796209751368E1  
                        
 2.116813813813814E10   -1.733934522238626E1  -3.986541776764887E1  -2.298268452079763E1   1.254524732946985E2  -2.488300771502418E1  -5.775235856708554E1  -1.414003437742532E1   5.710362417775612E1  
                        -2.304372912583633E1   1.275406402757342E2  -2.138018847866070E1  -6.254096599259346E1  -1.407318189026756E1   5.197884621419052E1  -1.969112166915584E1  -5.157540368647319E1  
                        -2.490334663796434E1  -5.761308979883991E1  -1.406500598875381E1   4.978114892881900E1  -2.219938339855930E1  -4.242422862514325E1  -2.217192167934611E1   1.614559899952718E2  
                        -1.412457975142678E1   5.837175945162788E1  -1.963080194284454E1  -5.237071448252290E1  -2.221160710559340E1   1.626996502085097E2  -2.844328096293455E1  -6.085223547061180E1  
                        
 2.123819819819820E10   -1.917156643948161E1  -1.029711841042862E2  -2.319035220072646E1   1.803017644156007E1  -2.322006677514125E1   1.761491049139620E2  -1.420600942412156E1  -5.119965092955199E1  
                        -2.310314830485885E1   2.005126647139950E1  -1.858421276404374E1  -1.066014492639376E2  -1.416071974612545E1  -5.706717690494603E1  -1.818556599273020E1  -1.044183727486108E2  
                        -2.328141406219505E1   1.762652855190357E2  -1.422191477913788E1  -5.882589412034987E1  -2.670599622849811E1  -1.588759191643176E2  -2.213068861829256E1   5.207056671885926E1  
                        -1.421975258674229E1  -5.015167779551965E1  -1.827714143420241E1  -1.045486721872296E2  -2.212333097014197E1   5.326974503190255E1  -2.671022386340956E1  -1.134887558386240E2  
                        
 2.130825825825826E10   -2.650473090506310E1   6.331452146867721E1  -2.302008553349555E1  -8.939448831339691E1  -2.293275406369820E1   4.676901976580706E1  -1.423691069675390E1  -1.602413180132911E2  
                        -2.310552435096475E1  -8.792791239356322E1  -1.941290532111025E1  -1.484792688600882E2  -1.422668803483443E1  -1.659969572680858E2  -1.805066930093305E1  -1.578192277202030E2  
                        -2.291703994918570E1   4.677670558251460E1  -1.421512328987185E1  -1.671545677220278E2  -2.408553679641851E1   5.606678605659715E1  -2.230765584224137E1  -5.654994242368243E1  
                        -1.423118001514017E1  -1.589647820365904E2  -1.800561831814586E1  -1.580921805886797E2  -2.236641813589741E1  -5.542451630879334E1  -2.746718492032307E1  -1.569130116190970E2  
                        
 2.137831831831832E10   -1.933432634248376E1  -5.573644384734715E1  -2.287042410368040E1   1.601789165744359E2  -2.382266901871683E1  -7.921583512239008E1  -1.426722527032113E1   9.106984708833353E1  
                        -2.282065368759722E1   1.620721195773213E2  -2.508284924316278E1   1.567200998588609E2  -1.423289171075833E1   8.573788789382701E1  -1.857801087084114E1   1.479600415162844E2  
                        -2.380617579336719E1  -7.950536964025633E1  -1.420975290705425E1   8.395634908127751E1  -2.125528731866187E1  -6.198992123192751E1  -2.224483167487465E1  -1.659488654365589E2  
                        -1.424744294507804E1   9.246727284742536E1  -1.861822428893664E1   1.472402110964016E2  -2.223043859553169E1  -1.650542996294730E2  -3.247171394610943E1   1.152615147523811E2  
                        
 2.144837837837838E10   -1.995360972826725E1  -1.187823092070080E2  -2.286647269252249E1   4.871709317343346E1  -2.511510044212963E1   1.631380174298495E2  -1.412757085299780E1  -1.764354382474314E1  
                        -2.287410351776790E1   5.031274521529742E1  -3.428871888525951E1   1.209248835028094E2  -1.410251496426742E1  -2.340619449211258E1  -2.071322791911036E1   9.952840338607432E1  
                        -2.531585213542032E1   1.630827705826396E2  -1.410995239019030E1  -2.473662845410231E1  -2.487098745227876E1  -1.509999133287431E2  -2.241394246641672E1   8.292480381611401E1  
                        -1.416015567509060E1  -1.636011636049286E1  -2.071182838058459E1   9.960287235386613E1  -2.248475664938959E1   8.409318406039076E1  -3.318776839579799E1   1.463296281973671E1  
                        
 2.151843843843844E10   -3.365338916747313E1  -8.666208163654741E1  -2.319398855640029E1  -6.307758835533832E1  -2.557618002315983E1   5.494572992483921E1  -1.404489875946877E1  -1.276318708171091E2  
                        -2.315513645742722E1  -6.122956928098303E1  -3.370868021918641E1   1.690772116297592E2  -1.405115393892718E1  -1.332230680363001E2  -2.228136480092286E1   6.743455572541183E1  
                        -2.560959192194932E1   5.652789717071855E1  -1.399258328365161E1  -1.345592443710559E2  -3.559489105213535E1   2.854295996882405E1  -2.284391834324535E1  -2.675085656011485E1  
                        -1.407549036284154E1  -1.258487111413871E2  -2.220633880289904E1   6.715740075229604E1  -2.283632401201307E1  -2.527926102971811E1  -3.456520453613700E1  -3.888432492977665E1  
                        
 2.158849849849850E10   -2.766451463781884E1  -5.936401330531852E1  -2.390360156284956E1  -1.730506244274522E2  -2.413014348259988E1  -5.636950304427715E1  -1.406594024142702E1   1.224308962618520E2  
                        -2.385090595248033E1  -1.712431031590440E2  -2.716619382545838E1   9.652358343985846E1  -1.409040937919299E1   1.169794981917870E2  -2.143858408751511E1   3.775993345434502E1  
                        -2.405574938428113E1  -5.600738154246962E1  -1.407668923756324E1   1.152249905844532E2  -2.386508666548395E1  -9.893806729098347E1  -2.321291464807380E1  -1.341537489864736E2  
                        -1.405967931479400E1   1.241101855875592E2  -2.140942137404822E1   3.707028120149263E1  -2.322404561847968E1  -1.330550287076231E2  -4.738756616528234E1  -4.295383846435221E1  
                        
 2.165855855855856E10   -2.061310321752888E1  -1.381616074799616E2  -2.436364780353717E1   7.978177040122660E1  -2.249471103477051E1  -1.777793426509822E2  -1.421137545175439E1   1.292861468916840E1  
                        -2.437597326276152E1   8.226674854504233E1  -2.373665746632491E1   2.636612030661004E1  -1.420312511066376E1   7.588219490751331  -1.921662217344884E1  -4.762706162175467  
                        -2.251182673399044E1  -1.781175113263146E2  -1.419616063110202E1   5.835378694577301  -2.296180954993847E1  -1.580392802140161E2  -2.320431256231797E1   1.180800210945607E2  
                        -1.422800835333316E1   1.440919346688462E1  -1.927550483746724E1  -5.271119793402907  -2.328334458489908E1   1.195924671035716E2  -3.045269236035638E1  -2.155412315778456E1  
                        
 2.172861861861862E10   -2.412862320803564E1  -1.746277091914336E2  -2.450089338920679E1  -2.668425098411092E1  -2.170132513149462E1   5.434081626008426E1  -1.434379798217841E1  -9.573675148234236E1  
                        -2.460480066432445E1  -2.498969802576227E1  -2.309393940795961E1  -5.044432182289513E1  -1.431189749424293E1  -1.010845059806770E2  -1.806454795016423E1  -5.760492387441913E1  
                        -2.173364986130387E1   5.451064670054522E1  -1.428304258609327E1  -1.031086370810703E2  -4.018021065392171E1   9.781091826747920E1  -2.324819834228216E1   8.463644703654504  
                        -1.432702337172759E1  -9.419505220568742E1  -1.807246834505246E1  -5.781530193928492E1  -2.326949849866544E1   1.029874950656157E1  -2.695661758040302E1  -7.346458299448835E1  
                        
 2.179867867867868E10   -2.386712582015202E1  -1.114806049570719E2  -2.441776720737148E1  -1.339606016540820E2  -2.206536409169659E1  -7.480621018609782E1  -1.437109347655591E1   1.554857209689314E2  
                        -2.451816082119776E1  -1.319781976204843E2  -2.109759010192757E1  -1.154039388947309E2  -1.436636453627496E1   1.501600327398232E2  -1.790166778774826E1  -1.105921464966284E2  
                        -2.210212664820940E1  -7.480586270843472E1  -1.437788559620897E1   1.484428733393721E2  -2.284197966749496E1  -1.225495550865910E2  -2.327223482397820E1  -9.973894439413894E1  
                        -1.434941833491164E1   1.567067692762579E2  -1.793374166505242E1  -1.107084337344783E2  -2.328825963929664E1  -9.850873742291539E1  -2.549352151210127E1  -1.284068110259999E2  
                        
 2.186873873873874E10   -2.391037927360500E1   1.672138543926134E2  -2.402308254543108E1   1.162425951897432E2  -2.366899798329237E1   1.603091283688938E2  -1.434637648339885E1   4.700451047767945E1  
                        -2.411018467985424E1   1.181276171117585E2  -2.303775688363233E1  -1.697130565089378E2  -1.433237508943829E1   4.154750961965132E1  -1.856844869331715E1  -1.635989828564083E2  
                        -2.364458588505475E1   1.607991213257057E2  -1.430393894883371E1   4.011344654477845E1  -2.074253635328607E1   1.702179603973530E2  -2.321390287458339E1   1.495270724968335E2  
                        -1.438042504885674E1   4.828722525145873E1  -1.852273311194603E1  -1.637476531492596E2  -2.328695092118410E1   1.506656323663507E2  -2.613327020942101E1   1.651892785563859E2  
                        
 2.193879879879880E10   -2.992554817144445E1   1.276849062426173E2  -2.398165423815916E1   3.616163072161294  -2.549484943810070E1   4.823091493825404E1  -1.424345662761220E1  -6.207303595435185E1  
                        -2.404647802526233E1   5.137162676652182  -2.672477296082023E1   1.611215110750802E2  -1.418996067313314E1  -6.749918735557108E1  -2.030317425926709E1   1.493841762229019E2  
                        -2.549883517340711E1   4.815204636053164E1  -1.420621750210918E1  -6.898759512636381E1  -3.663031251106258E1   1.005294784994699E2  -2.355075360811747E1   3.791548239387870E1  
                        -1.427404941402357E1  -6.060956706677452E1  -2.033300256663782E1   1.492333651648606E2  -2.353641700844718E1   3.918265112712786E1  -3.137880854452444E1   9.345178807624836E1  
                        
 2.200885885885886E10   -2.168910161080050E1   1.775116979174195E2  -2.450722701566132E1  -1.090755331224810E2  -2.531875992353166E1  -5.608427983367110E1  -1.420479224335204E1  -1.715641458036155E2  
                        -2.454788437337392E1  -1.068230122004765E2  -2.548354319088022E1   1.796058466045392E2  -1.416300284208455E1  -1.779048083424771E2  -2.152982210705358E1   1.144308523184651E2  
                        -2.531473727427793E1  -5.580533558586670E1  -1.412726482872716E1  -1.793069471663984E2  -2.355668823477756E1  -1.492515452314570E2  -2.422917383224672E1  -7.181859607120052E1  
                        -1.419970365178230E1  -1.700796679144137E2  -2.153143282592928E1   1.142099460010792E2  -2.421555033405516E1  -7.093501775085048E1  -3.539561152514206E1  -2.207162101189797E1  
                        
 2.207891891891892E10   -2.233450333661125E1   1.309922390699976E2  -2.533975016425522E1   1.419836508972180E2  -2.342377055852527E1  -1.710367360747986E2  -1.419355008234890E1   7.849276359439075E1  
                        -2.525166545934017E1   1.442763929031004E2  -2.235718546016529E1   1.530439012458879E2  -1.424005359106499E1   7.261555123925196E1  -2.099720584685319E1   8.140900292133679E1  
                        -2.346034687130946E1  -1.703284264570931E2  -1.424833625935992E1   7.111998105115450E1  -1.973666177095239E1   1.483400083706793E2  -2.475534774357891E1  -1.786605595417170E2  
                        -1.419826471806073E1   7.997072338253096E1  -2.102456023315037E1   8.117549188693396E1  -2.482079022384923E1  -1.777363170932459E2  -3.302525170133256E1  -1.482020254851696E2  
                        
 2.214897897897898E10   -2.608741858698033E1   8.893146054332860E1  -2.565752895274604E1   3.572229837013681E1  -2.213958083686511E1   6.369648322695322E1  -1.430402676800820E1  -3.112382615517065E1  
                        -2.563109573533964E1   3.767992322672729E1  -2.343493769164889E1   8.462467417402004E1  -1.437907056466600E1  -3.674008852134698E1  -1.927312512266340E1   3.955590207793196E1  
                        -2.212739444122393E1   6.444006691428503E1  -1.432844373329495E1  -3.787009941876120E1  -2.689316014720388E1   8.085583372220603E1  -2.484962563701794E1   7.545765890637502E1  
                        -1.434011783170415E1  -2.969574095874844E1  -1.921401950621389E1   3.918245071494808E1  -2.484927323803307E1   7.664184317202420E1  -3.278546786430400E1   9.820846430863432E1  
                        
 2.221903903903904E10   -2.269114589462341E1   1.516641365216584E2  -2.582516342521036E1  -7.211202129463946E1  -2.192164447858081E1  -6.605893724296472E1  -1.440118835628851E1  -1.403201011066313E2  
                        -2.587487584651180E1  -6.980151676796969E1  -2.560163464641403E1   2.168960002926851  -1.445016683884160E1  -1.454664208160991E2  -1.832211383803979E1  -1.109109870414916E1  
                        -2.187741464433529E1  -6.559828737896456E1  -1.440100112125811E1  -1.474676616062786E2  -2.450312349521006E1  -1.497108342836097E2  -2.501633192446592E1  -3.285010793326921E1  
                        -1.442354686508944E1  -1.389123942599368E2  -1.827743722413528E1  -1.198378772074518E1  -2.500960571594314E1  -3.231251459656197E1  -2.936609739633845E1  -6.205505911021681  
                        
 2.228909909909910E10   -1.672570861032920E1   1.163107330906034E2  -2.581583105932361E1  -1.785441709389176E2  -2.301119282894334E1   1.654694248467359E2  -1.448403953282003E1   1.107228652613449E2  
                        -2.587705841186594E1  -1.755671119998694E2  -2.208392914902872E1  -8.740241668278344E1  -1.456082580508079E1   1.057131170260515E2  -1.803631789622256E1  -6.221274604495063E1  
                        -2.298215898931219E1   1.657483610755679E2  -1.456191907266099E1   1.037803247422743E2  -1.765253595187971E1   1.300194861911722E2  -2.477270656301483E1  -1.401541236835937E2  
                        -1.458771780071542E1   1.125211691700824E2  -1.807221184029082E1  -6.246466314261276E1  -2.482307653774271E1  -1.382336979985237E2  -2.423077507493737E1  -7.718507178524057E1  
                        
 2.235915915915916E10   -2.156304131931619E1   3.639829587990865E1  -2.530402250494768E1   7.222514799047967E1  -2.508882087249060E1   4.399562981440077E1  -1.452685528589102E1   2.444825054346244  
                        -2.537734141896337E1   7.397534069448930E1  -2.276306352778427E1  -1.336315081532116E2  -1.449729766936444E1  -2.138244701763179  -1.849078102308151E1  -1.143779877895838E2  
                        -2.509122486286336E1   4.408088906738663E1  -1.447355719837867E1  -4.202157840500679  -2.284303349846318E1   5.703063241871659E1  -2.455021915967731E1   1.091214149755020E2  
                        -1.454294209265660E1   4.489078901954306  -1.846874858431808E1  -1.147997755323706E2  -2.457911505330531E1   1.102612058117583E2  -2.482322548926169E1  -1.467894198491545E2  
                        
 2.242921921921922E10   -2.818651739875550E1   1.511527585372672E2  -2.536210033583084E1  -4.203687857661294E1  -2.730235876604929E1  -6.395787965623426E1  -1.438909584056973E1  -1.066523174157519E2  
                        -2.540296221609719E1  -3.950888555692809E1  -2.874122750370526E1  -1.716281585271614E2  -1.436803235269027E1  -1.118680526482169E2  -1.970836393182540E1  -1.604643081530528E2  
                        -2.725922985623662E1  -6.375778441965956E1  -1.438518353790938E1  -1.138628409410877E2  -2.471734321829993E1  -1.664275914579634E2  -2.479458259560731E1  -3.893373505311902  
                        -1.441613181338666E1  -1.049960109342838E2  -1.975672650486991E1  -1.610578036207011E2  -2.480521129434616E1  -1.759582704909126  -2.710413333640085E1   1.484399971909758E2  
                        
 2.249927927927928E10   -1.547276095707729E1   9.099835345734046E1  -2.612535410478414E1  -1.538928393043973E2  -2.654117398121920E1  -1.646192143489221E2  -1.444919794613523E1   1.432689657523474E2  
                        -2.603393336587665E1  -1.525790164339601E2  -3.156727133424229E1  -1.572247979956144E2  -1.438980110626732E1   1.382780369050093E2  -2.059643649670246E1   1.583330948816433E2  
                        -2.652563260900014E1  -1.648220205972980E2  -1.436133981807048E1   1.361274959340493E2  -1.785870935778546E1   1.177759776838981E2  -2.569495885504721E1  -1.151710654751134E2  
                        -1.447318260620416E1   1.452517183825643E2  -2.061608188928989E1   1.581648382091763E2  -2.574272635975396E1  -1.129142507964087E2  -3.420123251517801E1   7.168794505418917E1  
                        
 2.256933933933934E10   -1.770821423610569E1   4.296568991962339E1  -2.669435546818835E1   9.866251299476288E1  -2.430067144576241E1   7.833835022808631E1  -1.448835661674226E1   3.469559912560571E1  
                        -2.670303849991282E1   1.009321558592545E2  -2.581092574606576E1   1.755264791978498E2  -1.444085659051050E1   2.863848440028508E1  -2.073198276582609E1   1.238521278356672E2  
                        -2.422424661358866E1   7.857373004910522E1  -1.440067991973650E1   2.705840321832329E1  -1.954979136894551E1   5.303948646205519E1  -2.634599789564615E1   1.412480374109185E2  
                        -1.443833884703314E1   3.666537339701738E1  -2.068605308239427E1   1.233134514137011E2  -2.634770478726784E1   1.423782059124970E2  -3.356806088027420E1  -1.501967116447380E2  
                        
 2.263939939939940E10   -4.361068655486217E1   4.562557295870228E1  -2.698345191713965E1  -9.447848483340476  -2.308551228195527E1  -5.147254786030769E1  -1.439585516195962E1  -7.488798293652964E1  
                        -2.680839156243859E1  -7.672957821366260  -2.516912660331469E1   9.471682299740419E1  -1.450242953691445E1  -8.104252578619816E1  -1.942983112940992E1   8.123447902909568E1  
                        -2.306541311392075E1  -5.087768386165230E1  -1.448591845769207E1  -8.256883480094569E1  -3.075565418887673E1  -1.322259650023087E2  -2.639236680335606E1   3.355649741058795E1  
                        -1.438266909642017E1  -7.345035125971687E1  -1.941962449168869E1   8.051210529960186E1  -2.639409568343697E1   3.437591949913692E1  -2.868142335260873E1   1.186069506295464E2  
                        
 2.270945945945946E10   -1.717168573112771E1   8.301256586135364E1  -2.733550827775397E1  -1.166301790431221E2  -2.368937866532391E1   1.770346870777623E2  -1.461777509710924E1   1.748572850681132E2  
                        -2.741851684784073E1  -1.136340356272754E2  -2.338293204074875E1   2.723280605043431E1  -1.467879189217337E1   1.697621615205368E2  -1.889804275561141E1   3.425831100386536E1  
                        -2.364970033833395E1   1.770436235055858E2  -1.466371139663654E1   1.681812360110529E2  -1.725921543237188E1   1.194304945469334E2  -2.684402554600479E1  -7.274995923761340E1  
                        -1.464909606258818E1   1.766535108342480E2  -1.891696971688535E1   3.405302624183795E1  -2.693647554731274E1  -7.151444726602514E1  -2.476989648384785E1   6.083245770439395E1  
                        
 2.277951951951952E10   -1.507787130588910E1   2.351921611676236E1  -2.700973264850644E1   1.376659239341055E2  -2.547025213364157E1   4.977264585639916E1  -1.479115436545348E1   6.746854420537494E1  
                        -2.694003828975485E1   1.401770739493221E2  -2.356551241571070E1  -6.109715981871177E1  -1.478444804624877E1   6.212178619254862E1  -1.834546839098984E1  -1.464907433322574E1  
                        -2.547417954746792E1   5.043047773072090E1  -1.473113902612635E1   6.002851142563446E1  -1.727023950538197E1   3.973107484350456E1  -2.624682050911839E1  -1.772559855856977E2  
                        -1.470505063187628E1   6.896219693189347E1  -1.833777973329699E1  -1.537967020645389E1  -2.619805879526487E1  -1.762505449254914E2  -2.426794967556486E1  -2.270329747739513E1  
                        
 2.284957957957958E10   -2.775124426114007E1  -5.055328136136168E1  -2.652154036517780E1   2.554171700335926E1  -2.855513466196972E1  -6.993436912682898E1  -1.457771533338761E1  -4.129645401277855E1  
                        -2.657721376395269E1   2.856315564744729E1  -2.329142840682441E1  -1.238821719865369E2  -1.460474017069188E1  -4.679497335377814E1  -1.865409618573018E1  -6.477029054196431E1  
                        -2.848809865812961E1  -6.953709422497462E1  -1.466650458573302E1  -4.869417912747149E1  -2.919620752365435E1  -1.162398221084681E2  -2.589378462391555E1   7.015047621030195E1  
                        -1.461709263038905E1  -3.997762926820400E1  -1.874489383724428E1  -6.557799223165104E1  -2.592680652975605E1   7.152014780462058E1  -2.476542794496018E1  -9.028444463474848E1  
                        
 2.291963963963964E10   -2.104629376496561E1   6.646531539994460E1  -2.681498535375567E1  -8.831311555383584E1  -3.142751275004469E1  -1.622775703753092E2  -1.459135622038043E1  -1.513617283961383E2  
                        -2.680692877692571E1  -8.607726156946839E1  -2.605919018725237E1   1.720458472834189E2  -1.466762360432303E1  -1.561580723824184E2  -1.913573149678146E1  -1.113552137679655E2  
                        -3.127509198812012E1  -1.626575477981199E2  -1.462521279876763E1  -1.579581808410558E2  -1.816265818153166E1   1.071698200008245E2  -2.631238712351857E1  -4.359290901592753E1  
                        -1.464961062860517E1  -1.494423442468519E2  -1.913291496728943E1  -1.114366307828277E2  -2.623831123227375E1  -4.169420815374976E1  -2.514896600408939E1  -1.483576164916094E2  
                        
 2.298969969969970E10   -1.569895705594595E1   7.410606419776652  -2.761222866680461E1   1.600815095774398E2  -2.835122958005861E1   9.997130454828388E1  -1.465314801848902E1   9.998879272059519E1  
                        -2.766174020656324E1   1.626697415818177E2  -2.793765905443312E1   1.423369022682142E2  -1.463689287285474E1   9.493111644952801E1  -1.997102753336272E1  -1.560200320940180E2  
                        -2.834606749056933E1   9.976322758789442E1  -1.458238026834441E1   9.255277404956203E1  -1.738071878739351E1   3.360537169643898E1  -2.713963807129352E1  -1.512308923412707E2  
                        -1.463132358504239E1   1.016035357830728E2  -1.990347311178714E1  -1.568268612307103E2  -2.719401759544114E1  -1.493440747227627E2  -2.924874131920174E1   1.684421343556430E2  
                        
 2.305975975975976E10   -1.885193499523626E1  -3.486518388141791E1  -2.828044344624880E1   5.288009515422389E1  -2.563783294255492E1  -2.501937651648129E1  -1.462164348908757E1  -9.274460722662015  
                        -2.814979688033619E1   5.465664936347824E1  -2.329968820296110E1   1.455078892963594E2  -1.456849497953313E1  -1.512872833840454E1  -2.006292422257399E1   1.644326613626108E2  
                        -2.567080988205476E1  -2.531736432712387E1  -1.464668194943603E1  -1.713423765762681E1  -2.352407419507404E1  -4.573048490267475E1  -2.729147375254805E1   1.021853123470243E2  
                        -1.459182510827312E1  -7.926518902522086  -2.008070644590688E1   1.639654951420733E2  -2.725275018661305E1   1.036188298384287E2  -2.647649876634868E1   1.718427747852400E2  
                        
 2.312981981981982E10   -2.765586646133495E1   6.270762116855041E1  -2.863403893511135E1  -5.562838986899265E1  -2.518332188844749E1  -1.597543775503627E2  -1.464485273117847E1  -1.194633801001774E2  
                        -2.861324688007124E1  -5.445919031424610E1  -2.089302310157124E1   9.958333300219513E1  -1.475150084366124E1  -1.251290902636615E2  -1.985200158606388E1   1.202936369466296E2  
                        -2.512004132329631E1  -1.593658680150859E2  -1.473246013844212E1  -1.266657584665630E2  -2.184837669745913E1   1.155283096527204E2  -2.783464044508737E1  -7.428733013088790  
                        -1.458857982607585E1  -1.178629653119957E2  -1.984032235028545E1   1.201265608978082E2  -2.788969970198305E1  -6.547123938470679  -2.472509787164905E1   1.375750576115797E2  
                        
 2.319987987987988E10   -1.717292987640957E1  -1.789828180945876  -2.894666124356102E1  -1.603315430513065E2  -2.668619788273059E1   6.762424109069701E1  -1.480521549197076E1   1.313011776204062E2  
                        -2.893893756222498E1  -1.588142774632320E2  -1.861472866514541E1   4.365060442595307E1  -1.494305387713437E1   1.262706880783005E2  -1.965719691269981E1   7.736450907827543E1  
                        -2.661758940933928E1   6.771799791735946E1  -1.489856044345320E1   1.246044488098504E2  -1.665900898607455E1   2.015715065619322E1  -2.815542796572881E1  -1.101664099490642E2  
                        -1.475349691754079E1   1.328649831115427E2  -1.957540040799419E1   7.682610873198597E1  -2.818583299948256E1  -1.093988266970454E2  -2.202460622604049E1   8.399901871612306E1  
                        
 2.326993993993994E10   -1.702179370470156E1  -6.449376227177773E1  -2.845263262708534E1   9.196676659323941E1  -3.013941211182034E1  -5.893083089060441E1  -1.481621508075337E1   2.305252694955415E1  
                        -2.845417418990219E1   9.381868325033106E1  -1.923728876054254E1  -2.483517660223427E1  -1.490979864234157E1   1.835164182002255E1  -1.928602826184394E1   3.127966885653063E1  
                        -3.006700892869593E1  -5.887510077314198E1  -1.494471102412163E1   1.649913064654740E1  -1.932594605284398E1  -7.232194649953087E1  -2.768681693678618E1   1.420700408797957E2  
                        -1.481382158413899E1   2.438930915215055E1  -1.928426992411028E1   3.026637155598340E1  -2.764507783410577E1   1.425815395821357E2  -2.198776504773098E1   1.774009460894990E1  
                        
 2.334000000000000E10   -2.713184978991679E1  -5.995605582581224E1  -2.825359814152962E1  -2.051759179718722E1  -3.600621992542801E1  -1.557113221743094E2  -1.474310940002455E1  -8.626145065506178E1  
                        -2.822608468166544E1  -1.814397514816895E1  -1.798879593883844E1  -8.646436742753645E1  -1.482872179846335E1  -9.103124384825750E1  -1.927190322476804E1  -1.445473597984466E1  
                        -3.601734150645631E1  -1.557798062454453E2  -1.484985051485736E1  -9.253506779060463E1  -2.528448540900707E1   1.112842652098318E2  -2.769295871136432E1   3.110050143117708E1  
                        -1.474854918228230E1  -8.474036445238158E1  -1.928921250411171E1  -1.500871501389107E1  -2.776847067446495E1   3.265421749011289E1  -2.124829043729826E1  -4.012569075710540E1  
                        
 2.341006006006006E10   -2.101980740298286E1  -2.897023237361439E1  -2.855872927048986E1  -1.342817252735738E2  -3.262486608171351E1   1.347285913180215E2  -1.477600773012310E1   1.641466239817470E2  
                        -2.850347474205055E1  -1.324676117574368E2  -1.874472399163310E1  -1.306847214790591E2  -1.487469468760361E1   1.600249881181232E2  -1.910658733462743E1  -6.139293855047931E1  
                        -3.258008201025627E1   1.350759964731891E2  -1.483476320672836E1   1.582958723620186E2  -2.012620920649941E1   2.700513214728409  -2.808044807673283E1  -7.933420833778355E1  
                        -1.479713985280903E1   1.656427062680039E2  -1.911461169763344E1  -6.201333220249820E1  -2.813877445282838E1  -7.839417407148827E1  -2.025038466421405E1  -9.290546664268096E1  
                        
 2.348012012012012E10   -1.654342321755108E1  -6.367012832093641E1  -2.945212087042515E1   1.144163276688856E2  -2.817114761152396E1   1.204964353684720E1  -1.485561367085212E1   5.471652318183259E1  
                        -2.960128627593444E1   1.156622641777765E2  -2.032093327662676E1  -1.654695305778995E2  -1.478444250997522E1   5.042269099363818E1  -1.942212294106344E1  -1.079641333176129E2  
                        -2.814196617986463E1   1.234878379280913E1  -1.482624012983756E1   4.885122717754616E1  -1.986037584323762E1  -6.634746867246220E1  -2.861729024843723E1   1.735632012951385E2  
                        -1.483962046892000E1   5.631324891719174E1  -1.947170170227643E1  -1.084784373352392E2  -2.874901775648384E1   1.758945118287857E2  -2.076603117629497E1  -1.281007740922044E2  
                        
 2.355018018018018E10   -1.811105947256104E1  -1.067782904490809E2  -3.005247184267294E1   6.319391957558439  -2.654567928421718E1  -1.218507998907470E2  -1.484139740359223E1  -5.415690212125193E1  
                        -3.014305191248527E1   7.670630477587911  -1.849960163825402E1   1.680364657237184E2  -1.480122334046224E1  -5.974720808542985E1  -1.957953081650893E1  -1.539928939334502E2  
                        -2.655569753415764E1  -1.219871009221847E2  -1.477035416451280E1  -6.109669537351846E1  -2.822146778206728E1  -1.544966310220101E2  -2.858451304360118E1   6.502113690215991E1  
                        -1.484003620023167E1  -5.271084592060367E1  -1.956632114404715E1  -1.542439341103203E2  -2.856499905473841E1   6.696843740447196E1  -1.960582149398000E1  -1.637409773591344E2  
                        
 2.362024024024024E10   -2.585593547193577E1  -3.150276429924095E1  -3.081465196620279E1  -1.022212638541769E2  -2.736933989660740E1   1.011548223905734E2  -1.487178312030219E1  -1.640508476443894E2  
                        -3.109721343614862E1  -1.007268516903522E2  -1.705582750946344E1   1.323680905693161E2  -1.498361728499495E1  -1.690323423755025E2  -2.020795234105986E1   1.610037938267423E2  
                        -2.740583751098625E1   1.010001704489683E2  -1.497371743603742E1  -1.714984390548211E2  -2.056932080473325E1   1.058475064909193E1  -2.944693236643802E1  -4.321298908290940E1  
                        -1.484362622611242E1  -1.627018026015437E2  -2.016413519583555E1   1.602945885326554E2  -2.946011487185546E1  -4.180241850956469E1  -1.913464647671121E1   1.661565281337064E2  
                        
 2.369030030030030E10   -1.861560832992196E1  -7.833384679424349E1  -3.132474263926930E1   1.531631310790111E2  -3.100175862416296E1  -2.990616059643668E1  -1.500995425547766E1   8.608774468236842E1  
                        -3.128121989812057E1   1.558830841798226E2  -1.472669268687304E1   8.120674782725224E1  -1.510934319066187E1   8.221943906656009E1  -2.044728051778774E1   1.192242205755573E2  
                        -3.111672851399625E1  -2.921724415768375E1  -1.515890239229561E1   7.984355777557705E1  -1.761377923410598E1  -8.121411037473841E1  -2.984048624385082E1  -1.473720338844163E2  
                        -1.500504444194382E1   8.778848322734613E1  -2.040718559665321E1   1.184937224965534E2  -2.965565299950557E1  -1.454403405172619E2  -1.774231031737786E1   1.222271258500592E2  
                        
 2.376036036036036E10   -1.810039966028328E1  -1.230227408368429E2  -3.109930027848472E1   4.686427447301494E1  -3.822744800213990E1  -1.231037717902143E2  -1.515583455177408E1  -2.281409221690913E1  
                        -3.127681668137672E1   4.859575168210332E1  -1.390516229360570E1   3.581008759038353E1  -1.519191414361348E1  -2.669472217341745E1  -2.048450017513026E1   7.699557192611653E1  
                        -3.826954895882945E1  -1.224877451455359E2  -1.511002249517024E1  -2.878812561658813E1  -2.596101293936772E1  -1.637921034920990E2  -2.973258352166419E1   1.073863124057835E2  
                        -1.513704832438400E1  -2.129702577508411E1  -2.038980661688078E1   7.621608363561759E1  -2.975693095161076E1   1.083251884304448E2  -1.694401576853251E1   7.485096266674017E1  
                        
 2.383042042042042E10   -2.083072274117259E1  -1.406337351971240E2  -3.109107697498337E1  -6.256825235860481E1  -3.319118820247387E1   1.759307276353589E2  -1.523083694761983E1  -1.316656000711747E2  
                        -3.094400523984509E1  -5.938685574125970E1  -1.404458324244786E1  -1.385908474204543E1  -1.519984935475772E1  -1.356741789920457E2  -2.001295038373218E1   3.488165845255268E1  
                        -3.313812160271692E1   1.758553119528727E2  -1.518369101491604E1  -1.377732703612919E2  -2.649150699286241E1  -2.514145536519556E1  -2.952556441954148E1   9.669100415795812E-1  
                        -1.520496217364428E1  -1.297192005453026E2  -1.999752146042882E1   3.386282319920205E1  -2.946704529134965E1   2.178873858747027  -1.538548454312517E1   2.604297859508207E1  
                        
 2.390048048048048E10   -2.166130237597060E1  -5.987595705219924E1  -3.134430070472608E1  -1.729007294490828E2  -2.813010148076100E1   5.074399709747710E1  -1.523124866046734E1   1.191111708256123E2  
                        -3.132768537798386E1  -1.712331852388837E2  -1.452083190953079E1  -5.944472896799972E1  -1.518023726288489E1   1.154723138153186E2  -1.948809744210394E1  -1.234106548020817E1  
                        -2.814512518949779E1   5.176580070222990E1  -1.527315474371426E1   1.138674398941272E2  -2.212087902580316E1  -7.434128755179560E1  -2.943243273798765E1  -1.072791192403104E2  
                        -1.524849919252428E1   1.206459760867146E2  -1.967750222544366E1  -1.291784891732465E1  -2.954673304339702E1  -1.066662125617284E2  -1.501992683882400E1  -2.216870759918627E1  
                        
 2.397054054054054E10   -1.501924481300986E1  -1.180781452959742E2  -3.156120635239851E1   7.845892763011936E1  -2.632143962788988E1  -8.218311819493566E1  -1.539834292202729E1   1.071427890769657E1  
                        -3.145250276290313E1   8.117983103654319E1  -1.583539267586535E1  -1.030375600152682E2  -1.519755456013460E1   5.941836957880327  -1.945642173448815E1  -6.025518535026512E1  
                        -2.626934268292105E1  -8.153374441761115E1  -1.518015455737891E1   5.147784435864391  -1.928008307536562E1  -1.291814997575654E2  -2.902843480952117E1   1.451455062275840E2  
                        -1.542975120800758E1   1.228094480656910E1  -1.951174528074330E1  -6.050998641773764E1  -2.907242184971639E1   1.461683103135175E2  -1.488396817655939E1  -6.870069841787883E1  
                        
 2.404060060060060E10   -1.836385117376716E1   1.663335734601299E2  -3.155010343011652E1  -3.266059015904573E1  -2.622143930864399E1   1.446405289644030E2  -1.527054699027328E1  -9.765365614523446E1  
                        -3.163437906261542E1  -3.183331429434716E1  -1.595010261743966E1  -1.541947103334593E2  -1.519119545106709E1  -1.025284210937061E2  -1.987160379165124E1  -1.090537423407715E2  
                        -2.618125716528398E1   1.437086500199657E2  -1.522108387955123E1  -1.055278547149769E2  -2.776687543047213E1   1.160091179523910E2  -2.910311231135724E1   3.148802741125559E1  
                        -1.526298836997876E1  -9.621223722122215E1  -1.987563502474086E1  -1.096628770139594E2  -2.923311248961629E1   3.339223066417932E1  -1.551317704616742E1  -1.133320252763460E2  
                        
 2.411066066066066E10   -2.530139072743845E1  -7.010540910611999E1  -3.252529101352553E1  -1.467525404328829E2  -2.840899048444418E1   1.353840818760257E1  -1.518267246207801E1   1.511517304567005E2  
                        -3.256448851323027E1  -1.439972524953157E2  -1.449995364132542E1   1.693119565006519E2  -1.499587120298564E1   1.467936306272710E2  -2.070002613029541E1  -1.544227184082935E2  
                        -2.852007325906904E1   1.288735448699547E1  -1.535021544292828E1   1.445610652840059E2  -2.094258753152982E1  -5.886510390827068E1  -3.037319639160798E1  -7.858060789096331E1  
                        -1.516884130184735E1   1.527629428110652E2  -2.079768383274821E1  -1.542385372072156E2  -3.010161812840066E1  -7.689851973544602E1  -1.609081295804425E1  -1.459020887064790E2  
                        
 2.418072072072072E10   -1.738278420950513E1  -1.229817801420849E2  -3.380193328765431E1   1.066541250735988E2  -3.284189305285995E1  -8.950305901482484E1  -1.545161146658930E1   4.081388151117935E1  
                        -3.394716488270828E1   1.066128596150394E2  -1.322323906108415E1   1.323693954101179E2  -1.545824468055102E1   3.726801619798155E1  -2.126296974635466E1   1.646957777120081E2  
                        -3.263910272531012E1  -9.008499658386067E1  -1.535058324487159E1   3.520353012083452E1  -1.987661055120607E1  -1.452627033256364E2  -3.125176310046174E1   1.791764063818484E2  
                        -1.538821487426292E1   4.211186210359635E1  -2.116825118003702E1   1.649258539411555E2  -3.145521708193777E1  -1.790670937379543E2  -1.545005003959961E1   1.787688963124106E2  
                        
 2.425078078078078E10   -1.610441256547734E1   1.685148275664736E2  -3.506562656733752E1   4.243339777718257  -3.053250411690006E1  -1.742533643527351E2  -1.578333174636076E1  -6.783466331256776E1  
                        -3.491070952813497E1   9.282059347731025  -1.171558296115163E1   9.526185706318752E1  -1.558229268590189E1  -7.222818745306222E1  -2.118619286546874E1   1.246834568202517E2  
                        -3.075667110183771E1  -1.745604512376895E2  -1.562035959565351E1  -7.458043674430971E1  -2.508803408833058E1   1.737861417937045E2  -3.087416636360705E1   7.931499885444643E1  
                        -1.579992134289930E1  -6.671583024675634E1  -2.116272226600269E1   1.245457848135243E2  -3.068196453417940E1   8.265424790262900E1  -1.359644397931290E1   1.406731538964986E2  
                        
 2.432084084084084E10   -2.098030828237024E1   7.541258072265823E1  -3.478417414987866E1  -9.223673538867664E1  -2.690605543919538E1   6.810529281014318E1  -1.595347178554237E1  -1.759374468686471E2  
                        -3.498140483710285E1  -9.223060104961792E1  -1.135260204897108E1   5.244506188571076E1  -1.588030384812823E1   1.780838352195702E2  -2.070721112092079E1   8.178310056382098E1  
                        -2.694830580723534E1   6.874402214566295E1  -1.590920426295987E1   1.769926819999415E2  -2.856076628544072E1  -9.050264292198200  -3.005781673335165E1  -2.587160928745565E1  
                        -1.589782815842481E1  -1.745076328684424E2  -2.070460350194715E1   8.148148978165821E1  -3.003222716451182E1  -2.559636606684681E1  -1.243485260673683E1   9.298580133639915E1  
                        
 2.439090090090090E10   -1.591691402871360E1  -1.140383519719791E2  -3.408149572270820E1   1.637524015056129E2  -2.497680971004059E1  -5.975211018504873E1  -1.619565071831874E1   7.623398082480939E1  
                        -3.390345817670604E1   1.659390281554549E2  -1.123525546640875E1   3.404687427429077  -1.597700856178808E1   7.120873094623612E1  -2.033412989725259E1   3.619556706015189E1  
                        -2.500575234609689E1  -6.008272670192132E1  -1.611058050442843E1   6.923324128239365E1  -1.751185032604212E1  -1.196675234258793E2  -2.929396545508459E1  -1.336524509448247E2  
                        -1.617681343693471E1   7.799526605606444E1  -2.035667207045829E1   3.559267046187088E1  -2.920091973945701E1  -1.321697341868296E2  -1.195362614614828E1   4.191897946066793E1  
                        
 2.446096096096096E10   -1.431127853004289E1   1.530770207017301E2  -3.281755182522730E1   5.445471434815964E1  -2.441315114513402E1   1.712237706169157E2  -1.615469758369052E1  -2.997087051281211E1  
                        -3.274520286773128E1   5.606778326470582E1  -1.149315103698991E1  -4.518612643552074E1  -1.614754315416587E1  -3.673179668928886E1  -2.007602828576188E1  -1.086358933648114E1  
                        -2.442832471754842E1   1.712929811044090E2  -1.606960882653862E1  -3.762631042670303E1  -1.613080701134943E1   1.495171299256733E2  -2.844346384732134E1   1.152336193517166E2  
                        -1.615212100558449E1  -2.904463544542585E1  -2.013005091068141E1  -1.151905235070717E1  -2.842021557349140E1   1.148591680628347E2  -1.210726279830113E1  -9.895096266856699  
                        
 2.453102102102102E10   -1.780469817037996E1   3.916733850016131E1  -3.213193028332640E1  -6.321576492443793E1  -2.473178189832689E1   4.026631858158154E1  -1.579768087262521E1  -1.383516149872347E2  
                        -3.206177288897049E1  -6.096960428343511E1  -1.254586889862001E1  -9.318280138599722E1  -1.557269326064813E1  -1.449272600900587E2  -2.039488488219521E1  -6.045247564794028E1  
                        -2.479201627665964E1   4.104301644336726E1  -1.583835029897290E1  -1.459737017773567E2  -2.064578527575261E1   2.295530796642448  -2.849171938352516E1  -1.849920034576054  
                        -1.589356857829415E1  -1.369522609157207E2  -2.048719384829110E1  -6.088482747492947E1  -2.838176655388381E1   4.341448430021211E-1  -1.330231839372648E1  -5.715505398818682E1  
                        
 2.460108108108108E10   -2.144354253779649E1  -1.187170271513428E2  -3.249255511721527E1   1.780427977086055E2  -2.682026920179315E1  -8.192444347490638E1  -1.549182822835941E1   1.110025763158245E2  
                        -3.268433850727779E1   1.790816147455636E2  -1.316249463385123E1  -1.337116877300011E2  -1.553550744054819E1   1.050941911090884E2  -2.147215348248110E1  -1.062435299152768E2  
                        -2.689760372457236E1  -8.279604729589102E1  -1.557723388117527E1   1.037403960892825E2  -1.752535724421195E1  -1.283936414525106E2  -2.955138048863144E1  -1.144476583805666E2  
                        -1.562865331277946E1   1.120053495359173E2  -2.148384268978547E1  -1.058482823586110E2  -2.944516551310412E1  -1.131975663965814E2  -1.441855912271963E1  -9.511678157177232E1  
                        
 2.467114114114114E10   -1.581125093602402E1   1.507452310624548E2  -3.474830682627871E1   6.371202523631877E1  -2.855137940505180E1   1.751172549703381E2  -1.563917421366897E1  -9.537340504284761E-1  
                        -3.495015750916629E1   6.456557149798839E1  -1.315770484438084E1  -1.611097140677842E2  -1.561616619089210E1  -5.861321467662974  -2.211181537295710E1  -1.437716772172517E2  
                        -2.878538962921720E1   1.740905114385107E2  -1.560614932909106E1  -7.065893181226670  -1.703273758516698E1   1.446646621362256E2  -3.066701974063600E1   1.419731078342701E2  
                        -1.568733329342114E1  -1.637165183396240E-1  -2.210344951920094E1  -1.435125926519591E2  -3.060815097511641E1   1.433984661022876E2  -1.427037636699416E1  -1.210346391188674E2  
                        
 2.474120120120120E10   -1.574109133221874E1   6.364120709520612E1  -3.730720432459992E1  -3.203441005535847E1  -2.675130903458939E1   6.971909462071265E1  -1.611061025527793E1  -1.106004466123191E2  
                        -3.744174408947912E1  -3.012430539267129E1  -1.166280580594405E1   1.611505300099931E2  -1.600414896394788E1  -1.162418253999910E2  -2.153532546011628E1   1.765424963187146E2  
                        -2.687571290016234E1   6.971876663436011E1  -1.586337646763444E1  -1.180649994292206E2  -2.120862383962396E1   4.518396315214752E1  -3.067520790941902E1   4.220277361270382E1  
                        -1.622426750278144E1  -1.092373997515340E2  -2.141828946539117E1   1.765647884069390E2  -3.070372584894746E1   4.356460810360219E1  -1.241459232810198E1  -1.587319805683453E2  
                        
 2.481126126126126E10   -1.884703982751461E1  -6.650990632211973E1  -3.671011613126097E1  -1.212874757784643E2  -2.500851185185978E1  -5.127445306344971E1  -1.653903771448696E1   1.411878010517112E2  
                        -3.649163302289146E1  -1.197409391125587E2  -1.002384633533612E1   1.147783569124857E2  -1.663447441601823E1   1.359495503542765E2  -2.103628557006877E1   1.311538936016134E2  
                        -2.494144930458243E1  -5.121272424146261E1  -1.642993162698616E1   1.328493366859483E2  -1.731591337949020E1  -9.885034405717498E1  -2.975330231203791E1  -6.327133158458961E1  
                        -1.654283926603445E1   1.432289369090154E2  -2.088470131298004E1   1.310719273812290E2  -2.978691548987399E1  -6.000016817283990E1  -1.102487604350264E1   1.543727192211890E2  
                        
 2.488132132132132E10   -1.386901605390519E1   1.448075195773077E2  -3.458796632809646E1   1.360796730381246E2  -2.390336985834966E1  -1.761897305306493E2  -1.687636437635107E1   3.544542259845667E1  
                        -3.444801146724544E1   1.359298455188795E2  -9.687695647395939   6.368541845711523E1  -1.678421700531081E1   2.847154487187907E1  -2.099675314331565E1   8.642728275276865E1  
                        -2.405555721878129E1  -1.763908382511127E2  -1.691133425981111E1   2.631919571500517E1  -1.386025122627311E1   1.492289231229969E2  -2.905212283359220E1  -1.707852623418203E2  
                        -1.681695695570619E1   3.662550252270199E1  -2.085781200941365E1   8.503255068539373E1  -2.893426337311563E1  -1.686805615126511E2  -1.092784653726741E1   1.053241125362003E2  
                        
 2.495138138138138E10   -1.453317966153856E1   4.983930353707539E1  -3.265835332037818E1   2.366673419826354E1  -2.375804947927831E1   5.809040724087480E1  -1.676501943693249E1  -7.022228030347284E1  
                        -3.244098221776569E1   2.463059306004140E1  -9.621967577791574   1.259332732605665E1  -1.704399141670047E1  -7.611622021064099E1  -2.070385584162512E1   4.014024544040876E1  
                        -2.372771084559829E1   5.752726433678696E1  -1.695811065828373E1  -7.905002673107964E1  -1.572451786941802E1   3.935482429598681E1  -2.825390456439812E1   7.681096277322618E1  
                        -1.673125974404443E1  -6.849507682668005E1  -2.076039316077216E1   3.906782191659882E1  -2.817092302122716E1   7.878652282710918E1  -1.126359613254183E1   5.272950126585806E1  
                        
 2.502144144144144E10   -1.953552080680209E1  -7.610285438113834E1  -3.134557868279276E1  -9.545119059905504E1  -2.417629647345127E1  -7.030629593434860E1  -1.633670397792858E1  -1.774280503497233E2  
                        -3.143163372663163E1  -9.347672816993772E1  -1.097887361358526E1  -3.322868013486403E1  -1.663555623491673E1   1.760682631405054E2  -2.085315133134013E1  -8.816981888210652  
                        -2.407341680255125E1  -7.092306399260768E1  -1.666693883948743E1   1.744938502443475E2  -1.682901042600641E1  -1.005512975847701E2  -2.794837428691212E1  -3.848442998309277E1  
                        -1.629832288074217E1  -1.767663203994075E2  -2.093833819672328E1  -9.144884982305012  -2.808080415869882E1  -3.760115535768581E1  -1.225831823450463E1   3.808903659700233  
                        
 2.509150150150150E10   -2.022879750098250E1   1.342449563685201E2  -3.139560169872838E1   1.422830669758980E2  -2.582235695195191E1   1.648580111008980E2  -1.583885885001301E1   7.263199739440954E1  
                        -3.135100926559350E1   1.440985874332979E2  -1.341069889864942E1  -7.670389077558161E1  -1.606193904902731E1   6.768812918273409E1  -2.170349472070197E1  -5.463082563845463E1  
                        -2.591496757961506E1   1.656355108174901E2  -1.622974795620353E1   6.575202210984382E1  -1.572688922894521E1   1.353203329578050E2  -2.867447677951455E1  -1.528385916545299E2  
                        -1.586365660948888E1   7.406827107921984E1  -2.181006930879391E1  -5.556519232505769E1  -2.850635327186351E1  -1.513204073137918E2  -1.381348032222603E1  -3.820015433883321E1  
                        
 2.516156156156156E10   -1.635078106264681E1   5.508773857739739E1  -3.288674456512617E1   2.130126906588006E1  -2.759206167793628E1   5.837190460738446E1  -1.564148053595841E1  -3.879983374102567E1  
                        -3.301648080261423E1   2.183306051742480E1  -1.467295224253207E1  -1.047890556342487E2  -1.585193810750208E1  -4.366400679087041E1  -2.268379474973269E1  -9.242367857707436E1  
                        -2.757446298160525E1   5.866870696637680E1  -1.589613765484716E1  -4.521360765249593E1  -1.680036822462972E1   4.185154652851966E1  -2.979136199443770E1   9.763572138425349E1  
                        -1.575664233084193E1  -3.780132963589044E1  -2.280497831589025E1  -9.211589693705496E1  -2.965598457707837E1   9.885517179718623E1  -1.454720192580999E1  -6.854277839623205E1  
                        
 2.523162162162162E10   -1.907122757746382E1  -3.984246242534097E1  -3.596765115020065E1  -8.633370868640284E1  -2.605264375304822E1  -4.955226795934445E1  -1.583858665371794E1  -1.505826411595703E2  
                        -3.610356763202744E1  -8.564246883884235E1  -1.301754198012482E1  -1.362160404890349E2  -1.600866298726136E1  -1.543521903925643E2  -2.180300800197155E1  -1.287489294888200E2  
                        -2.620001106397771E1  -4.961353699223388E1  -1.607414006114329E1  -1.570262039512161E2  -1.769788613713248E1  -7.685183373813723E1  -3.048062906633201E1  -5.294204344994659  
                        -1.594140985182090E1  -1.484990519450337E2  -2.184725472602652E1  -1.291315466177422E2  -3.049971245789028E1  -4.117456684583998  -1.320943843981545E1  -1.021833112064033E2  
                        
 2.530168168168168E10   -1.765288791368222E1   1.691976584921445E2  -3.683549759667265E1  -1.752031712567114E2  -2.469683802609331E1  -1.724515514165892E2  -1.621779225414059E1   1.004681545011157E2  
                        -3.698844707281759E1  -1.717720415078744E2  -1.122750500800729E1   1.772326622326558E2  -1.630634590523280E1   9.454745812961681E1  -2.084189355377686E1  -1.748063325142058E2  
                        -2.473050570566764E1  -1.717944071042922E2  -1.651028825945917E1   9.330356046860263E1  -1.593901141667169E1   1.571219099939164E2  -3.008261575916038E1  -1.094750644666036E2  
                        -1.627608298443742E1   1.016621041048297E2  -2.089086531556251E1  -1.748643486944254E2  -3.008721110791606E1  -1.080629222950879E2  -1.196274682288344E1  -1.470242329146095E2  
                        
 2.537174174174174E10   -1.608933790557170E1   5.130222659922671E1  -3.485297901329691E1   8.681105174410973E1  -2.434476741376754E1   6.154253888896952E1  -1.650698338524139E1  -7.361039438429242  
                        -3.465705036749158E1   9.049080001708356E1  -1.041405859346829E1   1.270058047247333E2  -1.694785487803957E1  -1.155542965799579E1  -2.062198833314998E1   1.372890094642105E2  
                        -2.428621210724104E1   6.187580769038154E1  -1.686605275372618E1  -1.330072414551967E1  -1.444054121951423E1   4.192325837138666E1  -2.930921010111839E1   1.422655428939243E2  
                        -1.653536213285718E1  -5.177645217818601  -2.052230718276515E1   1.371247540035895E2  -2.941226700384751E1   1.447622741815515E2  -1.146433466931723E1   1.659190448977673E2  
                        
 2.544180180180180E10   -1.966372959300599E1  -6.578928207727087E1  -3.286261395302709E1  -2.367023250790086E1  -2.459692510779939E1  -6.608117603194536E1  -1.661371706358432E1  -1.144897562971596E2  
                        -3.294503512063466E1  -2.200016347308683E1  -1.078679158971402E1   7.504344971930456E1  -1.701242300777318E1  -1.176447611589991E2  -2.065684942576060E1   8.970827600075106E1  
                        -2.450238213281754E1  -6.579231494767909E1  -1.692288299797878E1  -1.197141504864223E2  -1.640769004377483E1  -8.000128215601031E1  -2.887688619547026E1   3.156678102612336E1  
                        -1.655631678023121E1  -1.125037467257590E2  -2.055206479211759E1   8.968638056294886E1  -2.881588832054317E1   3.308365390051082E1  -1.182747466522596E1   1.162726516722984E2  
                        
 2.551186186186186E10   -2.186130885819412E1   1.641503044680520E2  -3.147901988245435E1  -1.415446881923565E2  -2.568623156376056E1   1.671120135899088E2  -1.638296545580301E1   1.389779143489892E2  
                        -3.149999608873094E1  -1.385063331997019E2  -1.191167552423917E1   2.390531698432681E1  -1.672975565111809E1   1.360695272429984E2  -2.087125565926695E1   4.243977539501803E1  
                        -2.576695583888597E1   1.666631066387644E2  -1.673140569058521E1   1.338206595943338E2  -1.668998086270024E1   1.523247705491688E2  -2.877830932176211E1  -8.110078416210145E1  
                        -1.638160003230540E1   1.406316624688979E2  -2.090606207605126E1   4.171917442956822E1  -2.862414440007337E1  -7.924844806183612E1  -1.283973574181914E1   7.014389384052167E1  
                        
 2.558192192192192E10   -2.478432130202173E1   6.207110437429969E1  -3.090249956185767E1   9.685470173103974E1  -2.804946866527876E1   4.543260347999457E1  -1.605635476990719E1   3.046489077842736E1  
                        -3.086615867350832E1   9.927494950720421E1  -1.422398782019320E1  -2.081447377323533E1  -1.629993710631659E1   2.813385943863995E1  -2.156914427360778E1  -3.034680982988939  
                        -2.817042309435980E1   4.585637911433854E1  -1.625285106431604E1   2.605750284757305E1  -1.688875699588049E1   3.859232169243482E1  -2.903621893471178E1   1.650352792764181E2  
                        -1.609418354273154E1   3.173733879544520E1  -2.158336534524959E1  -3.122685799186463  -2.906795260315646E1   1.661196926276429E2  -1.468529875097435E1   2.493241879741014E1  
                        
 2.565198198198198E10   -2.229825656361694E1  -3.136793225339453E1  -3.158588386051796E1  -2.576548891543935E1  -2.984180080867549E1  -5.808003120490235E1  -1.585518706098699E1  -7.904201673295739E1  
                        -3.139180318264818E1  -2.331895496067468E1  -1.575107677958336E1  -5.123818620524919E1  -1.578315385979533E1  -8.226118494305661E1  -2.245104050782942E1  -4.202399983815555E1  
                        -2.984489572022772E1  -5.886103229210709E1  -1.595863309886640E1  -8.388522437927377E1  -1.942144906399963E1  -6.121533399354813E1  -2.944989352872237E1   5.372849453257361E1  
                        -1.583756200383185E1  -7.786375396844318E1  -2.242561719385342E1  -4.233319405828369E1  -2.954138283103988E1   5.487671011009271E1  -1.589766194808987E1  -1.414433829748174E1  
                        
 2.572204204204204E10   -2.139046673196611E1  -1.475216393704087E2  -3.332047754694509E1  -1.421850475172538E2  -2.829698621420181E1  -1.675536244277265E2  -1.570984682689789E1   1.704189188949736E2  
                        -3.324193194777559E1  -1.420156385469809E2  -1.413311104869763E1  -7.598134614169052E1  -1.568423689978559E1   1.658062634307977E2  -2.197794065356262E1  -7.828251994287032E1  
                        -2.857992435529302E1  -1.675737480929582E2  -1.583774225820054E1   1.658863425314885E2  -1.933639388841098E1   1.777674971261102E2  -3.039717734741570E1  -5.484860258350864E1  
                        -1.578610414773044E1   1.718244347494789E2  -2.195201127525322E1  -7.835410406000074E1  -3.040452289787138E1  -5.343723275537767E1  -1.648132110527779E1  -4.842596785714234E1  
                        
 2.579210210210210E10   -2.000821893612157E1   9.539939260620587E1  -3.523582519819926E1   1.082595832007951E2  -2.732470203591232E1   6.654910200696081E1  -1.573236242998060E1   5.999966186362332E1  
                        -3.523363995484755E1   1.128927199728542E2  -1.244564494656568E1  -1.124894273987688E2  -1.608854740090882E1   5.617119772432316E1  -2.078222038608951E1  -1.220403124269797E2  
                        -2.726962886796750E1   6.696520458258868E1  -1.589582047946933E1   5.481522945627371E1  -1.797243722131105E1   5.385424348660876E1  -3.060883626500324E1  -1.601969326141515E2  
                        -1.575914326134892E1   6.182268759864033E1  -2.074024818073845E1  -1.217104070439602E2  -3.064742868444684E1  -1.584106178180121E2  -1.583148637183213E1  -8.844686856377874E1  
                        
 2.586216216216216E10   -2.401452850074241E1  -4.676786603950978E1  -3.565297950403163E1   1.166570264163572E1  -2.781798084912711E1  -6.379012260372204E1  -1.584234094182121E1  -4.986882481511350E1  
                        -3.579926882829190E1   9.927067990702698  -1.209280863227200E1  -1.585508255761918E2  -1.612607423670232E1  -5.284316403555273E1  -2.016224507919432E1  -1.704665315936727E2  
                        -2.775289266034956E1  -6.428818883761134E1  -1.612027658491185E1  -5.367829521223782E1  -1.854116612497879E1  -5.402033415302866E1  -3.085883511930777E1   9.326156221006762E1  
                        -1.578416101291980E1  -4.844718589909479E1  -2.017397427317933E1  -1.701154783329214E2  -3.080756428761791E1   9.467658059944550E1  -1.475561736160186E1  -1.287134241735601E2  
                        
 2.593222222222222E10   -2.176646936675050E1  -1.516407861454935E2  -3.455897442419405E1  -9.392151929222935E1  -2.992901283218616E1   1.649152381025104E2  -1.596078818220800E1  -1.588036358335428E2  
                        -3.489867745901219E1  -9.159646240175229E1  -1.319816014706538E1   1.492157542707379E2  -1.612627204162502E1  -1.612261847880866E2  -2.005547660513203E1   1.404498195303971E2  
                        -3.005608301666027E1   1.645318046258342E2  -1.604534850339993E1  -1.622149835494517E2  -2.126746789742657E1   1.737092674531247E2  -3.058064658368153E1  -1.573424476861382E1  
                        -1.602984941735715E1  -1.571970665325468E2  -1.988217938208505E1   1.407353364891723E2  -3.049114018871479E1  -1.556798719446191E1  -1.503689538592062E1  -1.708760698519980E2  
                        
 2.600228228228228E10   -2.517038090970133E1   1.413504189964206E2  -3.352610342149069E1   1.535647688201137E2  -3.474623512525545E1   4.335653800896672E1  -1.605455402919691E1   9.247932113848523E1  
                        -3.384933817897419E1   1.547249346703803E2  -1.437716060407531E1   9.330466712098816E1  -1.617072520641638E1   9.122718038935929E1  -2.047304287759406E1   9.274193556559189E1  
                        -3.463613317767732E1   4.292829541105248E1  -1.594055661420581E1   8.821228959344440E1  -2.281236138673892E1   5.466086877115923E1  -3.078318491625805E1  -1.270123512199614E2  
                        -1.603956814758044E1   9.414824784484618E1  -2.030724512619504E1   9.207495009403583E1  -3.077410070055457E1  -1.248204740729799E2  -1.589257443660505E1   1.405970414652540E2  
                        
 2.607234234234234E10   -2.633772411848584E1   3.868373470294803E1  -3.294717135809277E1   3.647436566112621E1  -3.957488182251392E1  -3.439850745966012E1  -1.600592930428498E1  -1.588525336748641E1  
                        -3.300424870044334E1   3.937272242879330E1  -1.586157569567939E1   4.634981027629333E1  -1.598468327898289E1  -1.865892876596900E1  -2.087897180867539E1   4.787764856013495E1  
                        -3.986969408407554E1  -3.505735087939236E1  -1.595771124467706E1  -2.001780892944364E1  -2.234136636461918E1  -3.893549201955876E1  -3.071123963693037E1   1.238408621065487E2  
                        -1.597762985405718E1  -1.476739292883406E1  -2.085703786347996E1   4.702912033048551E1  -3.073179246004997E1   1.241785045347714E2  -1.777811840983075E1   9.573015831126273E1  
                        
 2.614240240240240E10   -2.128862865019422E1  -1.088209186707139E2  -3.283749419401837E1  -8.162051119468400E1  -3.500488772999412E1  -1.234222942836740E2  -1.596019026597974E1  -1.252507394240387E2  
                        -3.275762720204200E1  -7.879433471751651E1  -1.774195523493838E1   6.580772605046686  -1.586398187789514E1  -1.272960323044117E2  -2.138669283552482E1   4.883907790183760  
                        -3.507616025406093E1  -1.233629625922130E2  -1.583978929318200E1  -1.291339367895036E2  -2.477447017174029E1  -1.365720713585541E2  -3.119087124932367E1   1.142196023551327E1  
                        -1.592748983704560E1  -1.233114802867758E2  -2.140130516558790E1   4.352753343737799  -3.117103372009667E1   1.275570509720753E1  -2.178757957630098E1   4.389647044362152E1  
                        
 2.621246246246246E10   -1.869836073339231E1   1.524445727450032E2  -3.307622018731105E1   1.587487766093296E2  -3.281858985147776E1   1.095905969491365E2  -1.591418220519752E1   1.255660128236773E2  
                        -3.333624833376256E1   1.622877111003694E2  -1.813437022689763E1  -1.963293835800100E1  -1.578049538798702E1   1.235078574914769E2  -2.162623868289575E1  -3.615715419364133E1  
                        -3.274339603956146E1   1.094204359957673E2  -1.566279036492737E1   1.208394295142251E2  -2.332691543723109E1   1.088947323973403E2  -3.179344304651466E1  -9.991199686086634E1  
                        -1.590914086874022E1   1.275221686174511E2  -2.159511556738238E1  -3.635305508894653E1  -3.190910057050364E1  -9.747787069833521E1  -2.473883681007300E1  -1.668532906575385  
                        
 2.628252252252252E10   -2.086366090457680E1   4.100171038180623E1  -3.372952481298479E1   4.193888789770525E1  -3.381678840599182E1  -2.181944002796847E1  -1.584444155137364E1   1.633915920353316E1  
                        -3.388481251758834E1   4.439750354666310E1  -1.752784933778233E1  -4.203202456796678E1  -1.570678469538700E1   1.335571397336617E1  -2.137149761976574E1  -7.605679135569113E1  
                        -3.378538873825882E1  -2.293628001151911E1  -1.571524570465350E1   1.102612492098610E1  -2.235152595365076E1  -6.276283510949385  -3.288510418342771E1   1.522563382314982E2  
                        -1.578574794756028E1   1.807567306943199E1  -2.132005681371171E1  -7.665462192628134E1  -3.281545526296689E1   1.529923797451919E2  -2.716755639684688E1  -3.050086226439623  
                        
 2.635258258258258E10   -2.419330619309548E1  -9.649808781476594E1  -3.502648454859911E1  -7.363792359432625E1  -3.974507829195093E1  -1.403663689507804E2  -1.579826380454348E1  -9.356835339047200E1  
                        -3.484821127485069E1  -7.314728691212785E1  -1.687249289360273E1  -8.037261665245727E1  -1.571777188216106E1  -9.691186322235741E1  -2.059641411256188E1  -1.187957778912899E2  
                        -3.963058402778166E1  -1.401809465921378E2  -1.572732736319216E1  -9.891250955304545E1  -2.411216412773350E1  -1.070983089785349E2  -3.381413793785245E1   4.898813176988247E1  
                        -1.571057779480987E1  -9.187392358382989E1  -2.060559882894159E1  -1.190001916620244E2  -3.384074142432645E1   4.995341401849777E1  -2.427731489606828E1  -4.078579503283141E1  
                        
 2.642264264264264E10   -1.945858971821839E1   1.583946208876111E2  -3.593713332695502E1   1.739044894243830E2  -3.969911560428949E1   1.774308490788890E2  -1.583666906099443E1   1.563272902856880E2  
                        -3.641581332331558E1   1.761749511789933E2  -1.634168453459799E1  -1.268607657428974E2  -1.590621571097903E1   1.539136861709422E2  -1.983945643568206E1  -1.649589398291796E2  
                        -3.970463028582233E1   1.786427042309121E2  -1.586386029540245E1   1.518719319074745E2  -2.463942507307154E1   1.343251337188860E2  -3.401618348215556E1  -5.471429032953825E1  
                        -1.581492717411017E1   1.581166741858181E2  -1.983881699019650E1  -1.649853942299829E2  -3.401538007160004E1  -5.365843181823031E1  -2.013172395784744E1  -8.146696508833455E1  
                        
 2.649270270270270E10   -2.091560404560109E1   6.289547850082661E1  -3.714414780466653E1   6.748965707315711E1  -3.209281808232183E1   6.547786060566074E1  -1.588399112904049E1   4.725361235320743E1  
                        -3.687830961281490E1   6.969458241558418E1  -1.683398819819263E1  -1.759048808950737E2  -1.590148102783459E1   4.482363674965663E1  -1.942978118964809E1   1.459242872451360E2  
                        -3.217601343792367E1   6.511900772659209E1  -1.584116048667054E1   4.285862761992219E1  -2.337333807527824E1   2.912977322196413E1  -3.346082029109921E1  -1.606940484216469E2  
                        -1.590994722273894E1   4.939136595245235E1  -1.941937925442444E1   1.460475242563123E2  -3.361547041273619E1  -1.588432486735688E2  -2.096997732484658E1  -1.285776951966917E2  
                        
 2.656276276276276E10   -2.083037234116083E1  -5.471731929306406E1  -3.680849410684635E1  -3.882689912605359E1  -2.883097623148760E1  -6.686072047595893E1  -1.586063298710389E1  -6.204924576027436E1  
                        -3.715281760737472E1  -3.728396888077688E1  -1.832403712310236E1   1.322314254086970E2  -1.583879443923384E1  -6.444244335515802E1  -1.954902501926205E1   9.636176470670031E1  
                        -2.894047169334547E1  -6.668662270654399E1  -1.585846197560698E1  -6.596603346473376E1  -2.251579365555479E1  -8.501962003323472E1  -3.336339646011518E1   8.920129937142865E1  
                        -1.590771908485279E1  -5.999795763718027E1  -1.950792345454046E1   9.630244220908764E1  -3.338446047329582E1   9.248874745346988E1  -2.341202510106048E1   1.718352945669148E2  
                        
 2.663282282282282E10   -2.069161588621761E1   1.711366557622849E2  -3.655191089553880E1  -1.492295607358213E2  -2.802811732777896E1   1.603112977650636E2  -1.595482018328972E1  -1.715760809754547E2  
                        -3.618130912259225E1  -1.450702575660775E2  -2.205762741678962E1   8.851984980124691E1  -1.583949209796469E1  -1.734105805807765E2  -2.012627325850137E1   4.734054217782705E1  
                        -2.796933141593316E1   1.606079286872740E2  -1.583698807046000E1  -1.756008704386062E2  -2.216494605128887E1   1.602287693579085E2  -3.345184242039164E1  -2.234624715752850E1  
                        -1.595965602480756E1  -1.696274787448062E2  -2.015860180968824E1   4.761397864079609E1  -3.352995443661940E1  -2.084646094359598E1  -2.931419240447085E1   1.426552022840364E2  
                        
 2.670288288288288E10   -1.838376598211277E1   6.355063928481039E1  -3.543249749847323E1   9.811192903306224E1  -2.874069890423402E1   3.244600636796186E1  -1.599768739027608E1   7.973350542500033E1  
                        -3.568281118952263E1   9.925188891849827E1  -2.991653368521269E1   7.464806726525892E1  -1.583274129100025E1   7.752632443125785E1  -2.126019878196550E1   3.594353539835088  
                        -2.884066392347761E1   3.202723545792112E1  -1.584161041696026E1   7.502385141785294E1  -2.109969685159825E1   5.218569394306540E1  -3.415067566606633E1  -1.325442064761180E2  
                        -1.601783658211474E1   8.160626439193545E1  -2.124982440632763E1   3.235161632222947  -3.420568539856153E1  -1.308260142231721E2  -3.135818181551996E1  -1.538603712707033E2  
                        
 2.677294294294294E10   -1.896634009832658E1  -4.347711763317782E1  -3.498970320362608E1  -2.052826480076596E1  -3.059441509275946E1  -8.316252194050705E1  -1.597593334882568E1  -2.976953613066528E1  
                        -3.491081517228472E1  -1.724666590488281E1  -2.890129211004604E1   6.135720016246594E1  -1.582688657091034E1  -3.272331831316780E1  -2.209165847401368E1  -3.297628856570602E1  
                        -3.067098983435050E1  -8.235285956043931E1  -1.579847397015441E1  -3.468597018589874E1  -2.263540535703815E1  -6.643344374055205E1  -3.552053374693573E1   1.179138885589761E2  
                        -1.594570414520960E1  -2.780061694905466E1  -2.201388892362864E1  -3.299144814737040E1  -3.530191285915691E1   1.188857245045240E2  -2.591172173907712E1   1.499726789067022E2  
                        
 2.684300300300300E10   -2.398138612092920E1  -1.635386881470106E2  -3.492239921244297E1  -1.401208615688140E2  -3.052631326984193E1   1.771861006183713E2  -1.598966458685694E1  -1.396895570342290E2  
                        -3.508865212605988E1  -1.403310270157631E2  -2.194338164443219E1   5.928748816729044  -1.588512892699501E1  -1.423206092449375E2  -2.126534704701360E1  -6.811271523123703E1  
                        -3.053905038257337E1   1.771472843377675E2  -1.584912623176137E1  -1.445178395057648E2  -2.170121126801003E1   1.734750338957560E2  -3.629601309684304E1   1.576554321538982E1  
                        -1.600335227882245E1  -1.374271308429732E2  -2.124168077763218E1  -6.842229189288585E1  -3.647190487458524E1   2.094812172433795E1  -2.280830091435819E1   9.551640954420671E1  
                        
 2.691306306306306E10   -1.969631291757975E1   6.273800896278426E1  -3.556062625971512E1   9.988306938608733E1  -2.781540041516857E1   6.702554350766511E1  -1.609385102144623E1   1.109592896909082E2  
                        -3.575904367362955E1   1.025991325645755E2  -1.884998736009978E1  -4.844242993442892E1  -1.607267454363072E1   1.083167295474255E2  -1.969591324792498E1  -1.112867396115661E2  
                        -2.775517389991593E1   6.704618306496388E1  -1.611042160522258E1   1.067379105184051E2  -2.089256696687108E1   5.870886734333958E1  -3.647048062902560E1  -8.531880933665215E1  
                        -1.610230854188876E1   1.134251384887867E2  -1.980248611484014E1  -1.110409047005172E2  -3.620896049855430E1  -8.337677421029449E1  -2.418912420842135E1   3.761678806125894E1  
                        
 2.698312312312312E10   -2.119238921970907E1  -2.957841460744977E1  -3.652076435891529E1  -1.355112217396976E1  -2.538197464179768E1  -5.728132886015239E1  -1.612842308774109E1   2.319775005583701  
                        -3.633414196789116E1  -1.476345097438242E1  -1.772111480498558E1  -9.891308057311396E1  -1.612827648460984E1  -6.699180681026082E-1  -1.861056327771475E1  -1.618029375661696E2  
                        -2.538752647139658E1  -5.770680010990601E1  -1.609253355102194E1  -1.878352449146286  -2.309730500437734E1  -5.585936430496683E1  -3.595532478011697E1   1.674165352876374E2  
                        -1.611843468767886E1   4.204649155836622  -1.854195916462264E1  -1.615276110303695E2  -3.600404838714625E1   1.715714912653780E2  -2.415417884336067E1  -2.175250271189402E1  
                        
 2.705318318318318E10   -2.306455881457923E1  -1.337083356055836E2  -3.703509130698365E1  -1.280400393892673E2  -2.438828994065423E1   1.727232015644110E2  -1.614917965127927E1  -1.067358344438697E2  
                        -3.733234056665654E1  -1.203544904504741E2  -1.899409321347691E1  -1.395985387375745E2  -1.609283910780483E1  -1.086616689025748E2  -1.834566766010989E1   1.446353497774070E2  
                        -2.436131769065792E1   1.726907859788960E2  -1.606875522712147E1  -1.105901400730585E2  -2.375471538278616E1   1.797208961884455E2  -3.646711413340515E1   5.783186318331386E1  
                        -1.614482247698400E1  -1.047421323917787E2  -1.831028636478713E1   1.447983216183422E2  -3.634025312645965E1   6.058085711842265E1  -2.700976266020195E1  -5.084878343343527E1  
                        
 2.712324324324324E10   -2.606989459097093E1   7.185364661695948E1  -3.755546593672615E1   1.251355973328512E2  -2.443467772578989E1   4.338852669634641E1  -1.609414246682373E1   1.439032929286421E2  
                        -3.724878320124411E1   1.277831808733990E2  -2.342519260599603E1  -1.692021910597991E2  -1.597706964904385E1   1.425103172690529E2  -1.904758788335459E1   9.194931320454160E1  
                        -2.452622040397242E1   4.370057811509029E1  -1.602444098841913E1   1.408049716269383E2  -2.489528553315375E1   7.045268684320521E1  -3.676359360538712E1  -4.388125060784548E1  
                        -1.610979817906800E1   1.463218086140632E2  -1.903017399730819E1   9.230990633834580E1  -3.696397523579715E1  -4.445084302072444E1  -2.900022955650588E1  -8.008437315505732E1  
                        
 2.719330330330330E10   -1.991095784091918E1  -1.703028246947466E1  -3.727089777839113E1   1.334190812651380E1  -2.576129695342430E1  -8.185534338497921E1  -1.602652431002965E1   3.440183861657278E1  
                        -3.694171412720707E1   1.762128170518774E1  -2.756999509041052E1  -1.715742781548566E2  -1.591979134545414E1   3.265351888594906E1  -2.055760040024084E1   4.469159427032167E1  
                        -2.584282249044893E1  -8.179741076783839E1  -1.589285816728106E1   3.069772218454171E1  -2.667650333387380E1  -3.002224501739145E1  -3.753475478266729E1  -1.479553181244668E2  
                        -1.603487079787987E1   3.640433926401173E1  -2.052557076065611E1   4.481005895729119E1  -3.754812888191773E1  -1.463858232376724E2  -2.682398400932230E1  -9.803417330652017E1  
                        
 2.726336336336336E10   -2.467767190922210E1  -1.056328768780240E2  -3.619489584561073E1  -9.871239221177594E1  -2.730936489784019E1   1.656697171551602E2  -1.610729448843591E1  -7.529978988200448E1  
                        -3.629660679303750E1  -9.605963789453034E1  -2.636567953298072E1   1.763388606967807E2  -1.592949885165101E1  -7.701492853829853E1  -2.200366204810635E1   8.417888261944206  
                        -2.737312192691658E1   1.649781509862436E2  -1.589229043524353E1  -7.940411476948606E1  -2.698024657292189E1  -1.592277323292970E2  -3.735964573687158E1   1.077479571066756E2  
                        -1.604901698730626E1  -7.301737070167570E1  -2.201727024688182E1   8.551059288133828  -3.734532876956953E1   1.119030536659387E2  -2.807155094024370E1  -1.274044669860578E2  
                        
 2.733342342342342E10   -3.012675344537223E1   1.018522134888426E2  -3.580464377412111E1   1.450911586589822E2  -2.699195291344670E1   6.021008948243943E1  -1.607776752374672E1   1.748858755341332E2  
                        -3.566060130222859E1   1.486804560864258E2  -2.721523486974415E1   1.237433753327383E2  -1.596285154251505E1   1.723109566815591E2  -2.142513524900116E1  -2.263853095707265E1  
                        -2.697863824008057E1   5.976085053899211E1  -1.598675895631387E1   1.709357450870899E2  -2.747423450976832E1   9.646379972177867E1  -3.715183379850489E1   5.845559779194662  
                        -1.613627372039578E1   1.764256689618501E2  -2.142183041923442E1  -2.278046628794311E1  -3.711678313236437E1   6.809439572075998  -2.916406573940645E1  -1.733763572417155E2  
                        
 2.740348348348348E10   -2.496499306812765E1  -2.481381971062841E1  -3.578366278160757E1   2.890911015093767E1  -2.498029842038739E1  -5.476595926847128E1  -1.623619623224440E1   6.504241002983314E1  
                        -3.587645649078701E1   2.962209681501925E1  -2.743840848204662E1   5.562761153964337E1  -1.616371125874919E1   6.375679494563805E1  -1.965521929006350E1  -6.421641066626846E1  
                        -2.508103356304098E1  -5.568379738429702E1  -1.606901207613059E1   6.085877484281276E1  -3.241037823708173E1  -4.822570990089346E1  -3.637840199692366E1  -1.012452998948049E2  
                        -1.629389082987839E1   6.708102913464884E1  -1.954765753860944E1  -6.469470183927443E1  -3.646725906199050E1  -9.734153724594512E1  -2.938767726220334E1   1.558934871495997E2  
                        
 2.747354354354354E10   -2.797804340050199E1  -1.026236292656498E2  -3.615185918973809E1  -8.597888629809323E1  -2.364472309715974E1   1.792516034745519E2  -1.635309120034971E1  -4.410695674829881E1  
                        -3.608249997988784E1  -8.291569540937756E1  -3.022143449304148E1  -1.178810860927255E1  -1.627189011570583E1  -4.600513722877032E1  -1.833627653578612E1  -1.149674212677502E2  
                        -2.363859050166013E1   1.794589802117124E2  -1.622782417225174E1  -4.807431409853567E1  -2.915023848847450E1   1.630432304828917E2  -3.716106856409223E1   1.488513439138285E2  
                        -1.638562013702511E1  -4.197151092464500E1  -1.832886907126253E1  -1.150107517569148E2  -3.668487391640746E1   1.471491115617764E2  -3.163621903350189E1   1.082260177417751E2  
                        
 2.754360360360360E10   -3.495763806143489E1  -1.707601818402304E2  -3.589769310137906E1   1.654300762070728E2  -2.315797024692261E1   5.091534151118557E1  -1.642620508929826E1  -1.530095497537183E2  
                        -3.593650645872626E1   1.651146462187699E2  -3.175252633283694E1  -7.215068458548629E1  -1.619663985266015E1  -1.541252862427818E2  -1.800294251772610E1  -1.684229597359927E2  
                        -2.321099936679150E1   4.962819528550511E1  -1.632418540346927E1  -1.564433476952883E2  -3.161986038416410E1   1.175374360579616E2  -3.784529516149464E1   4.544952163212980E1  
                        -1.644413846093535E1  -1.511452971958291E2  -1.794203645773669E1  -1.682375490676777E2  -3.792552734305564E1   5.129374028264174E1  -2.761682369917993E1   5.615673502745604E1  
                        
 2.761366366366366E10   -3.835069093652681E1  -1.514338489482649E2  -3.551503787194317E1   5.013523222522246E1  -2.397157199105261E1  -7.735407775061863E1  -1.647202916982252E1   9.786433108706616E1  
                        -3.546763943897281E1   5.290963916667725E1  -3.662018803521957E1  -1.121274544660788E2  -1.637569210051499E1   9.762549563467876E1  -1.848256076582882E1   1.385961558305042E2  
                        -2.396075077603769E1  -7.782190755131802E1  -1.634988872437635E1   9.452960882985805E1  -2.895826030390780E1   1.478188580524193E2  -3.774123617216335E1  -5.407584255779957E1  
                        -1.643469148572712E1   1.000116810279107E2  -1.851677189022221E1   1.385207292336478E2  -3.743423702508203E1  -5.147641788920409E1  -2.869374300113019E1   3.008720503912888E1  
                        
 2.768372372372372E10   -2.908935150225403E1  -1.038300213668297E2  -3.529326018812994E1  -6.423514990259731E1  -2.558423848240713E1   1.597538485396516E2  -1.647230655250999E1  -1.159064951455940E1  
                        -3.542524293681900E1  -6.218178427159192E1  -3.987325386232206E1  -7.998643878404766E1  -1.618337113062061E1  -1.243047619800350E1  -1.977012058852573E1   9.019237942258167E1  
                        -2.560737436088509E1   1.598516675531401E2  -1.624262709697039E1  -1.469256759706937E1  -3.129015165231253E1   1.028399435277730E2  -3.680925759371372E1  -1.512278893451698E2  
                        -1.644574401211944E1  -9.348690813583065  -1.980252721580926E1   9.024790015692302E1  -3.671081161905199E1  -1.509925860190019E2  -3.042731455022290E1  -2.932055950074109E1  
                        
 2.775378378378378E10   -3.028643243702244E1  -1.683221650711546E2  -3.492315734915456E1  -1.782054690714111E2  -2.708833481319300E1   4.942959759677223E1  -1.651794646008583E1  -1.214089574485365E2  
                        -3.497754580798079E1  -1.748668280564988E2  -3.009725613267384E1  -8.392942458917300E1  -1.620738908678314E1  -1.223387245415253E2  -2.105753303841216E1   5.033107047637625E1  
                        -2.718152683236965E1   5.044792311390508E1  -1.620840663705757E1  -1.246751793059350E2  -2.941668278081739E1   1.475576330343989E2  -3.550055625646576E1   1.059708408970682E2  
                        -1.653824508348291E1  -1.190101031810154E2  -2.108331181807559E1   5.020512701369475E1  -3.551335321125968E1   1.052186296329607E2  -2.881262632345955E1  -2.906432736661753E1  
                        
 2.782384384384384E10   -3.592834466539001E1   1.509176077956998E2  -3.471500176150911E1   6.515464036009750E1  -2.634884562758417E1  -5.732836662494414E1  -1.659883925988862E1   1.286768360810753E2  
                        -3.462401895981235E1   6.745982173822073E1  -2.493417108915257E1  -9.930091778760479E1  -1.628308551944034E1   1.273644888117883E2  -2.112321789757331E1   1.510449443207263E1  
                        -2.646498488894400E1  -5.673195333952855E1  -1.630525687465289E1   1.257288699754837E2  -2.538210785762212E1   1.289112020764590E2  -3.364263197682222E1  -5.733472990116471  
                        -1.658964005740016E1   1.312008033837507E2  -2.111466378091527E1   1.547726098704673E1  -3.372740535292807E1  -3.785441914018727  -2.500187617708179E1  -2.159268945723235E1  
                        
 2.789390390390390E10   -2.522531415711377E1   1.499549896156420E2  -3.513412556046479E1  -5.143012275552706E1  -2.479422434913681E1  -1.748079984429321E2  -1.679999684610155E1   1.936696615779894E1  
                        -3.503986108669984E1  -4.957186242579411E1  -2.255500489724263E1  -1.255677401567695E2  -1.640256170939006E1   1.742532250454210E1  -1.987598607359135E1  -2.596416750398974E1  
                        -2.481495557981738E1  -1.747620273797051E2  -1.635946265850685E1   1.609461487596847E1  -2.489208423196543E1   1.127916328344428E2  -3.285727823088892E1  -1.201055093038878E2  
                        -1.675662346312817E1   2.176201212667768E1  -1.989742341764452E1  -2.567300277361636E1  -3.308153135581792E1  -1.168512998515040E2  -2.191854580886452E1  -6.538740803605725E1  
                        
 2.796396396396396E10   -3.379500937817319E1   1.279035724084490E2  -3.594573750466838E1  -1.625161803782725E2  -2.379074751015845E1   5.838024648506239E1  -1.684832389291939E1  -8.901100120323532E1  
                        -3.637313887122499E1  -1.615750045332791E2  -2.000056203801220E1  -1.554302726015866E2  -1.649622193719374E1  -9.160782900964833E1  -1.892443659153125E1  -7.389509204992805E1  
                        -2.382913041561286E1   5.841166042466625E1  -1.651455206641480E1  -9.291842589390447E1  -3.019258391132840E1   8.358483012681288E1  -3.312240683458498E1   1.258516111087218E2  
                        -1.688760961957516E1  -8.683140943806390E1  -1.892685107467145E1  -7.378165173224228E1  -3.320153925404809E1   1.280684527586674E2  -1.833071985273481E1  -1.110873924125579E2  
                        
 2.803402402402402E10   -2.130297105251832E1  -1.761371533852500E2  -3.630631115612479E1   9.137517352640546E1  -2.400019122006970E1  -7.059526268223743E1  -1.685919402481069E1   1.619774924861630E2  
                        -3.628674006715343E1   9.302523541967140E1  -1.914510498609004E1   1.733931953548986E2  -1.665431396694471E1   1.599133396359745E2  -1.860940670331031E1  -1.251419395558434E2  
                        -2.410729639373302E1  -7.056879910638378E1  -1.655707735291659E1   1.576100828562132E2  -2.247587502626078E1   1.608240981206307E2  -3.350410260394307E1   1.646456527108602E1  
                        -1.692677158769762E1   1.638042526418455E2  -1.852476969635002E1  -1.249903278433500E2  -3.347016372014988E1   1.853938843336477E1  -1.876358757470215E1  -1.555864640486392E2  
                        
 2.810408408408408E10   -1.909803365421866E1   1.147926960849841E2  -3.594755581574852E1  -1.718029052214434E1  -2.535988278270426E1   1.628930382222872E2  -1.685176448570836E1   5.327432557900580E1  
                        -3.618406200279457E1  -1.582989915460959E1  -1.992339790630582E1   1.350361917392250E2  -1.664570138909668E1   5.150114561706018E1  -1.910106410462339E1  -1.760531095800063E2  
                        -2.539732798037142E1   1.628005148458456E2  -1.663271532556558E1   4.916950363187934E1  -1.891132485917105E1   1.027169878005371E2  -3.401565352827579E1  -9.180123826997756E1  
                        -1.686484302878904E1   5.533762433760872E1  -1.905674911336335E1  -1.768274707636939E2  -3.397299844761641E1  -9.084977628910630E1  -1.851020509662548E1   1.495696992130344E2  
                        
 2.817414414414414E10   -3.113211183067008E1   7.883051120628225E1  -3.560044421646379E1  -1.252859689549911E2  -2.761174976296697E1   4.517158110382035E1  -1.678760486533395E1  -5.738411633914650E1  
                        -3.534165292851944E1  -1.242443659941207E2  -2.166943215881422E1   8.549916480765717E1  -1.653467077227959E1  -5.826077110256044E1  -2.004031162356844E1   1.372630350617661E2  
                        -2.767245121191687E1   4.501209698925065E1  -1.655464560224472E1  -6.029998579468574E1  -3.054723640440892E1   3.605328840931009E1  -3.415685612825813E1   1.684321554122143E2  
                        -1.676280379545417E1  -5.570381053809675E1  -2.008088456400713E1   1.373818346885043E2  -3.443617533687448E1   1.700712959717876E2  -1.987589645560409E1   1.186261698340753E2  
                        
 2.824420420420420E10   -2.200318026688576E1   1.687591940691908E2  -3.441124096522487E1   1.219191061919339E2  -2.874723852356408E1  -5.833269591305616E1  -1.700660088071412E1  -1.684562989808163E2  
                        -3.486435639494447E1   1.228166019679795E2  -2.164113021380537E1   3.172255508621519E1  -1.669271447994104E1  -1.685598321781584E2  -2.087001763344516E1   9.598792768018105E1  
                        -2.880558074093032E1  -5.798875891207514E1  -1.659203745113905E1  -1.707097995914415E2  -2.223484136882186E1   1.481158226082325E2  -3.320567800165623E1   6.562940726140884E1  
                        -1.707310699904789E1  -1.660750990797902E2  -2.076725501826475E1   9.577248507819364E1  -3.320562473340248E1   6.803121497739377E1  -2.205076227117090E1   8.984893487238091E1  
                        
 2.831426426426426E10   -1.742004377448216E1   1.240177095610653E2  -3.432742229196488E1  -1.735678752798948E-1  -2.726541789517944E1  -1.681101509845969E2  -1.736508711228552E1   8.226428661216299E1  
                        -3.387734871134396E1   5.550777457567473  -1.888115331351417E1  -1.284400521944687E1  -1.695935449142607E1   8.150254819256169E1  -2.068858030379831E1   5.673166704679867E1  
                        -2.723517039035822E1  -1.677378622330337E2  -1.679540373635907E1   7.946038892157284E1  -1.872120933636350E1   1.040999159821912E2  -3.159477997536125E1  -4.356357543742232E1  
                        -1.734789879335287E1   8.386492980707945E1  -2.072058855198283E1   5.627830608795959E1  -3.178053845655999E1  -4.053385619065335E1  -1.882153546001367E1   5.306958060907505E1  
                        
 2.838432432432432E10   -1.867951421975697E1   5.446696160071905E1  -3.490103752267977E1  -1.154959855389679E2  -2.601043639779116E1   6.935330998709746E1  -1.773224156536763E1  -2.579053518775491E1  
                        -3.516531713799413E1  -1.154797664816673E2  -1.604694652496750E1  -4.688234767606241E1  -1.697725537516157E1  -2.740666870720358E1  -2.017845017813729E1   1.130033947763895E1  
                        -2.594145077702186E1   6.980586368971537E1  -1.706374533379159E1  -2.935190226696283E1  -2.186339600108912E1   5.060226596153395E1  -3.089222978207841E1  -1.593484598901712E2  
                        -1.781027694188445E1  -2.390773936695265E1  -2.024075521677969E1   1.121660393067703E1  -3.064483630055868E1  -1.571072881563496E2  -1.620905181881065E1   1.555461204490151E1  
                        
 2.845438438438438E10   -2.216340780966895E1  -1.615701619800730E2  -3.615110977311048E1   1.335713078746232E2  -2.569533920918212E1  -5.804354556511671E1  -1.787800218539273E1  -1.339960091903495E2  
                        -3.644303287463614E1   1.390431654652625E2  -1.439579510558007E1  -9.034826997536241E1  -1.716425381313599E1  -1.360662416155137E2  -2.009669762502928E1  -3.531454601677196E1  
                        -2.573620593013331E1  -5.823983969595084E1  -1.715977828657417E1  -1.378327910457411E2  -2.730321528503036E1  -1.698854819843235E2  -3.095816695054526E1   8.838115200085586E1  
                        -1.789538787138786E1  -1.318875476814336E2  -2.012891784320740E1  -3.539142405789506E1  -3.091315835813499E1   8.868179874263747E1  -1.438492644357524E1  -4.268252243648229E1  
                        
 2.852444444444444E10   -1.354010703859195E1   1.166838883137559E2  -3.722756650230780E1   2.669926279307399E1  -2.693601196676123E1   1.737890750470338E2  -1.799014377628515E1   1.193497117661998E2  
                        -3.706475720034433E1   2.865394685600173E1  -1.352866320214272E1  -1.329419937828423E2  -1.723366169554250E1   1.165731815768726E2  -2.020254157871062E1  -8.233934853293616E1  
                        -2.691180707057510E1   1.740212193530189E2  -1.720337185762634E1   1.135367377569838E2  -1.498083800234153E1   1.074414787102475E2  -3.089393803973376E1  -2.631550695383176E1  
                        -1.814017554904348E1   1.218743200745416E2  -2.019826577283247E1  -8.291362892680405E1  -3.099017685495230E1  -2.486828007107921E1  -1.244650261277148E1  -8.812553844449070E1  
                        
 2.859450450450450E10   -1.760008148133518E1   3.292065439869912E1  -3.800414493597691E1  -7.420400545464848E1  -2.890537671688074E1   5.281008001270456E1  -1.775640757095817E1   1.231466003690266E1  
                        -3.791358171293700E1  -6.955866349290506E1  -1.365948118225533E1  -1.795686345128015E2  -1.714321082048521E1   8.440369912572979  -2.067543691548311E1  -1.280595468784033E2  
                        -2.899523876464478E1   5.367257348038043E1  -1.725490371835913E1   6.228490668620875  -1.755261333428655E1   2.920975312351441E1  -3.195751511874910E1  -1.375301848379188E2  
                        -1.770730752463296E1   1.493451984926361E1  -2.071876885303073E1  -1.284300037385433E2  -3.201565514137879E1  -1.348445919031512E2  -1.290459677456700E1  -1.358253787241203E2  
                        
 2.866456456456456E10   -2.397276238911947E1  -1.656808716000082E2  -3.653360370626540E1  -1.733741506820664E2  -3.146273111668937E1  -5.636670317928231E1  -1.742229160094481E1  -9.823345460480368E1  
                        -3.656710248379184E1  -1.722236930185024E2  -1.467179139009803E1   1.360126408624828E2  -1.705322988841881E1  -1.026502668679177E2  -2.110159778001678E1  -1.726423612763614E2  
                        -3.155390750349381E1  -5.534433158165245E1  -1.695719233708837E1  -1.036761204864330E2  -2.551236567782603E1  -1.542322059845602E2  -3.264292432017380E1   1.178586855463415E2  
                        -1.748012755952734E1  -9.596687822297452E1  -2.108508756927023E1  -1.721526173798559E2  -3.271202866818157E1   1.205311804374803E2  -1.327237254845535E1   1.799920549767555E2  
                        
 2.873462462462462E10   -1.587574319576070E1   1.131849723623302E2  -3.480674783351233E1   7.318236381637618E1  -3.101493872494062E1  -1.533680092591645E2  -1.743465601861745E1   1.505030448543022E2  
                        -3.489760740942560E1   7.832389185955729E1  -1.549395653486202E1   9.701808129573281E1  -1.709762821502922E1   1.468349788436702E2  -2.131976449821843E1   1.463098256593262E2  
                        -3.101879341755319E1  -1.529540834769162E2  -1.708261378286870E1   1.449552436878514E2  -1.620601610300952E1   1.030256831476826E2  -3.229968933173398E1   1.769490219038198E1  
                        -1.742920471037062E1   1.525080212016219E2  -2.134918778925085E1   1.460903266671768E2  -3.229239215283669E1   2.023899407461887E1  -1.490028039179304E1   1.510485534645813E2  
                        
 2.880468468468468E10   -1.560108472958428E1   4.819520684785868E1  -3.442428516968715E1  -4.502146186058115E1  -2.897346650928414E1   9.104632423545300E1  -1.775741017164448E1   3.988670658082864E1  
                        -3.428112956161412E1  -4.388112593486326E1  -1.501325076995973E1   6.102428941011422E1  -1.746512098639430E1   3.794236426566862E1  -2.083685636770485E1   1.022314028667737E2  
                        -2.891888959902018E1   9.084559854558280E1  -1.738914446169254E1   3.570197136285901E1  -1.577831498039487E1   4.319388234584669E1  -3.127763737837802E1  -9.055464211808000E1  
                        -1.777825630216036E1   4.191174924525127E1  -2.085531907335275E1   1.025025123490286E2  -3.126305533605079E1  -8.787737443438709E1  -1.554823793995979E1   1.155977954629782E2  
                        
 2.887474474474474E10   -2.168803094857169E1  -7.241921509823109E1  -3.516316785880024E1  -1.613297227451782E2  -2.806493609742081E1  -3.720566097991993E1  -1.806624106269751E1  -6.979825620765563E1  
                        -3.531713288600496E1  -1.580646645009335E2  -1.318304595858350E1   2.015114182346486E1  -1.755247503240555E1  -7.100290978238078E1  -2.087796810051452E1   5.465246640238954E1  
                        -2.809507123060503E1  -3.768280018609559E1  -1.758569773565379E1  -7.353763758612818E1  -2.396140511683556E1  -5.737656379943118E1  -3.080831425777405E1   1.572267029678072E2  
                        -1.806384212983541E1  -6.712856520224551E1  -2.084732459649855E1   5.494018965493261E1  -3.072178727116726E1   1.603088154638044E2  -1.343443941280694E1   7.349784796493087E1  
                        
 2.894480480480480E10   -1.529053507349469E1   1.197777423567009E2  -3.610065649209793E1   9.013979484198990E1  -2.934780706928902E1  -1.671886512299054E2  -1.854019197021350E1  -1.779052091693484E2  
                        -3.629689610337492E1   9.086295213422604E1  -1.203998772555335E1  -2.543918925196565E1  -1.796138042350151E1   1.799367750261280E2  -2.126221821614384E1   8.518573587177315  
                        -2.944983190014231E1  -1.671884353534466E2  -1.795371028660187E1   1.778130945942760E2  -1.586573815409965E1   1.174242597124022E2  -3.063050746380543E1   4.490539269108715E1  
                        -1.860557070383435E1  -1.754735414081841E2  -2.120258898811452E1   8.527342422978901  -3.074266191518064E1   4.734752582933538E1  -1.282749593175342E1   2.752772045831847E1  
                        
 2.901486486486486E10   -1.390997992064216E1   3.555245330364939E1  -3.736717656710634E1  -1.700148397932829E1  -3.211347568086527E1   7.363451777007083E1  -1.878238843425999E1   7.681716360542349E1  
                        -3.717778346881171E1  -1.436446608808078E1  -1.111811920634479E1  -7.506686210460214E1  -1.815849781896612E1   7.421424163741875E1  -2.197290970026091E1  -3.524656344261464E1  
                        -3.212443592681594E1   7.435588729687196E1  -1.821930850759267E1   7.188804871244101E1  -1.319033446605901E1   3.548911351903011E1  -3.091414476390329E1  -6.605176452717063E1  
                        -1.880056032590879E1   7.910820221954411E1  -2.197407752004062E1  -3.551287273632257E1  -3.096199824204178E1  -6.364926513769852E1  -1.146897329834520E1  -2.799820022691732E1  
                        
 2.908492492492492E10   -2.421999578949527E1  -8.131825887092782E1  -3.752687379921984E1  -1.151175769430780E2  -3.513713452598289E1  -2.900449675316138E1  -1.852023150808756E1  -2.990280904295994E1  
                        -3.749917764200195E1  -1.140548990104312E2  -1.096025554647206E1  -1.224322245502500E2  -1.791029571663151E1  -3.312730118841449E1  -2.210678272589514E1  -7.620906251558228E1  
                        -3.494315987125167E1  -2.862207349235434E1  -1.783186414692498E1  -3.488474851176379E1  -2.150265760258668E1  -7.021811314921850E1  -3.126544924168366E1  -1.746427251925721E2  
                        -1.854954746597332E1  -2.748383927849477E1  -2.218178754858310E1  -7.593411651831750E1  -3.127977955979927E1  -1.720006252734308E2  -1.089123323727466E1  -7.188468762186507E1  
                        
 2.915498498498498E10   -2.100997783505852E1   1.139849126752113E2  -3.645096982001206E1   1.435874449644404E2  -3.438641549875901E1  -1.169672344958860E2  -1.830529138750242E1  -1.387271644606992E2  
                        -3.603304596867024E1   1.463003714687288E2  -1.151840879279891E1  -1.647501949777009E2  -1.764519280177958E1  -1.427381682234886E2  -2.203744645191226E1  -1.185606261262290E2  
                        -3.424488916421056E1  -1.175179460036712E2  -1.764228258603673E1  -1.449724934974291E2  -1.757658081344808E1   1.069918015150582E2  -3.157120917226253E1   7.794266045705489E1  
                        -1.823587716363775E1  -1.366832422876258E2  -2.202619188101036E1  -1.174199876162403E2  -3.153134745981764E1   8.004332551540281E1  -1.141987899249742E1  -1.195317998070490E2  
                        
 2.922504504504504E10   -1.709556940229361E1   4.251266008143481E1  -3.466394072461988E1   3.320039473371914E1  -3.096934452367490E1   1.301261113265143E2  -1.804239005417920E1   1.121126226153540E2  
                        -3.457458942060171E1   3.405255095708505E1  -1.246831282679695E1   1.583525534656727E2  -1.767519235572408E1   1.077268600413065E2  -2.158168367087312E1  -1.619479369446106E2  
                        -3.088761908231752E1   1.305943734161001E2  -1.763082114123477E1   1.048333518030737E2  -1.420164545413176E1   3.570490673115818E1  -3.171213667731245E1  -2.790500145442927E1  
                        -1.809948195819427E1   1.141740007578665E2  -2.163201180634243E1  -1.617978480562499E2  -3.163753727569435E1  -2.573786432400164E1  -1.167394449148166E1  -1.584978637839183E2  
                        
 2.929510510510510E10   -1.648301884005336E1  -2.707535358465351E1  -3.423292484134375E1  -8.237483451965527E1  -2.942738424169722E1   3.270914727757621  -1.792962270015623E1   2.040440855434833  
                        -3.414768855961930E1  -8.071373047239192E1  -1.273079807091816E1   1.262125603572174E2  -1.762386979617567E1  -2.522970280307861  -2.148497197744617E1   1.507202311472202E2  
                        -2.939508064106611E1   2.758615994776025  -1.763228550503350E1  -5.273561613746856  -1.731542602190656E1  -2.990427653394635E1  -3.135038402011371E1  -1.351042124806666E2  
                        -1.790812657088535E1   3.842033545832923  -2.142611030605105E1   1.508028633296745E2  -3.126716347476458E1  -1.327139307993500E2  -1.261188950682738E1   1.696139675428474E2  
                        
 2.936516516516516E10   -2.320563757036581E1  -1.718145565993977E2  -3.398958421666749E1   1.649425152473714E2  -3.003288195172463E1  -1.272359099120709E2  -1.793739169783898E1  -1.095844875918260E2  
                        -3.413915946557076E1   1.673581531115547E2  -1.245556561117409E1   8.570832658494395E1  -1.781544969775089E1  -1.135047215857182E2  -2.179366895167033E1   1.044992787543894E2  
                        -2.994737998424195E1  -1.276585921069995E2  -1.775682147430350E1  -1.157111394764914E2  -2.231384114984397E1   1.452111780388650E2  -3.120546513429240E1   1.171198410901390E2  
                        -1.797223759127998E1  -1.068507253283336E2  -2.170038815162493E1   1.046244021438486E2  -3.122043145742526E1   1.186678156138955E2  -1.293118076218194E1   1.298829603325353E2  
                        
 2.943522522522522E10   -1.613991869834593E1   4.343530418955097E1  -3.437217829939628E1   5.059663110108136E1  -3.301840751396656E1   1.145361235690201E2  -1.827125522534225E1   1.403557154403852E2  
                        -3.427513251546236E1   5.297000451035367E1  -1.160812211282515E1   3.774615027793462E1  -1.826421003369365E1   1.378996190834014E2  -2.236835603036933E1   5.972303893391140E1  
                        -3.299844718173246E1   1.144788284501727E2  -1.822256740213871E1   1.349931638014230E2  -1.313261823831127E1   4.000687328367312E1  -3.096326797156838E1   8.255717575044070  
                        -1.830269958519069E1   1.422982448368565E2  -2.230581737366484E1   5.968630325791331E1  -3.099178672765392E1   1.194350870454580E1  -1.222614494175304E1   9.144859441730414E1  
                        
 2.950528528528528E10   -1.652195728101963E1  -2.772266681778961E1  -3.465608170510525E1  -5.875096482706289E1  -3.439461788940427E1   2.378985631936878E1  -1.856393051994841E1   3.225946337541033E1  
                        -3.502211403097727E1  -5.647024700198619E1  -1.117685604514412E1  -1.374922498008049E1  -1.843031919361749E1   3.172213799929160E1  -2.289146603053015E1   1.908246847990348E1  
                        -3.452115081978883E1   2.416413958336597E1  -1.843859192083263E1   2.874411913456312E1  -1.528491169441743E1  -3.691037523641469E1  -3.061782065282874E1  -9.885244278020130E1  
                        -1.861481610619957E1   3.504010062098920E1  -2.282445162692794E1   1.901382814110108E1  -3.058990023579309E1  -9.640841173647883E1  -1.269665116863452E1   4.285724545690226E1  
                        
 2.957534534534535E10   -2.499433155041445E1  -9.041875968506322E1  -3.508701287015799E1  -1.658817556227868E2  -3.120694898445147E1  -7.633259148707811E1  -1.873279493785433E1  -7.566861299466692E1  
                        -3.507656052086207E1  -1.631245487597724E2  -1.059362364813991E1  -6.145504953518804E1  -1.825634415567265E1  -7.618952120133071E1  -2.264041099675594E1  -2.088378252619103E1  
                        -3.105233573813781E1  -7.660474967517231E1  -1.821259017026339E1  -7.929195118348490E1  -2.993944168599451E1   1.481129235606711E2  -3.016666490269195E1   1.507481831582393E2  
                        -1.870115926325751E1  -7.356741194221578E1  -2.258195031174507E1  -2.212994134524574E1  -3.009957607285284E1   1.523461473156960E2  -1.167944297956766E1  -9.683253827304228  
                        
 2.964540540540540E10   -2.348858335144717E1   8.734558541480948E1  -3.499649741379373E1   8.870976692738738E1  -2.863502422616662E1   1.607590299259248E2  -1.881874954837519E1   1.768835521907834E2  
                        -3.489705570164153E1   9.177200179602043E1  -1.069117224852957E1  -1.056150368495571E2  -1.830841884808642E1   1.756378107638589E2  -2.209491549205207E1  -6.394499110417097E1  
                        -2.855154315093182E1   1.603710188302646E2  -1.833916860750767E1   1.721344787683647E2  -1.753742864621405E1   3.612923328853458E1  -3.018608527298076E1   3.983023638847806E1  
                        -1.879780922607950E1   1.793567687233046E2  -2.212036148407857E1  -6.495725140808145E1  -3.044086436787358E1   4.231312394227455E1  -1.151478869720698E1  -5.570716383595259E1  
                        
 2.971546546546546E10   -1.482823935826614E1  -5.085983859357102  -3.483973817309835E1  -2.132563722816625E1  -2.736316724301840E1   3.399758296410676E1  -1.878193565490097E1   6.958151012925922E1  
                        -3.466973390619458E1  -1.725670638647338E1  -1.118745391919243E1  -1.456090136872052E2  -1.814900022935723E1   6.743399902637002E1  -2.166452274745759E1  -1.109143584788095E2  
                        -2.736075654972462E1   3.379554739166906E1  -1.813263998898487E1   6.444968089980193E1  -1.547875726475141E1  -1.815272406302042E1  -3.022488726383172E1  -7.011426898982327E1  
                        -1.879401644805398E1   7.117804485913852E1  -2.163756838062654E1  -1.116487046669391E2  -3.019775804761695E1  -6.778041563411811E1  -1.150135215745685E1  -1.041773838221246E2  
                        
 2.978552552552552E10   -1.541887266075399E1  -9.114517263428610E1  -3.479267208259209E1  -1.245306785488051E2  -2.731340238023588E1  -9.353979061769012E1  -1.850762519279797E1  -3.819518765597061E1  
                        -3.492881959633495E1  -1.225648448871847E2  -1.154756741434805E1   1.778143448703030E2  -1.785469376113548E1  -4.159826507837467E1  -2.195473532727779E1  -1.595841400729103E2  
                        -2.720766201108792E1  -9.324737739198045E1  -1.792821027914940E1  -4.471315016336097E1  -2.029783156911299E1  -9.581518944637179E1  -3.063964277106088E1   1.791141328137912E2  
                        -1.849462163819610E1  -3.533362391358587E1  -2.198896753500907E1  -1.600326606603867E2  -3.068300966403721E1  -1.771503701140611E2  -1.178014131944003E1  -1.424624158255782E2  
                        
 2.985558558558558E10   -2.022144483061947E1   1.127415407269114E2  -3.346155013614925E1   1.277125791611041E2  -2.844455758969246E1   1.427212804796216E2  -1.812340337394107E1  -1.488584303624013E2  
                        -3.336764068880121E1   1.303191153858420E2  -1.202259280107641E1   1.442550658912574E2  -1.781789746433534E1  -1.539183207605177E2  -2.269303390703905E1   1.558947545038011E2  
                        -2.846200269504667E1   1.419280927624889E2  -1.778776183749310E1  -1.557024999122103E2  -1.989025928394783E1   6.127277702278320E1  -3.101962566784427E1   7.375730146167867E1  
                        -1.809704225218728E1  -1.466660185736303E2  -2.280247038570948E1   1.556640894240483E2  -3.087005233477757E1   7.693832853328718E1  -1.371822538332026E1  -1.770447106654345E2  
                        
 2.992564564564564E10   -1.510085108890475E1   1.361198483440975  -3.259619653306417E1   1.211390163712281E1  -3.005574056523281E1   3.391344963446360E1  -1.810806321977186E1   9.920863287861303E1  
                        -3.263265629539347E1   1.562607604562894E1  -1.215003573844603E1   1.063840237897416E2  -1.805547017243532E1   9.722526518812221E1  -2.329997725792542E1   1.169146617039740E2  
                        -3.004955333982706E1   3.398774402102990E1  -1.801421565153670E1   9.442106466689752E1  -1.429230538452123E1  -2.305516378338988E1  -3.058165701471681E1  -2.973669848375011E1  
                        -1.815964545802241E1   1.024321686118193E2  -2.327403124087169E1   1.169774424447075E2  -3.059889668756837E1  -2.716272492356447E1  -1.378350932403213E1   1.472883808641324E2  
                        
 2.999570570570570E10   -1.579020038216232E1  -7.593163564538635E1  -3.282626323791005E1  -1.039534757938177E2  -2.881961402612611E1  -6.987944202113340E1  -1.853655465074026E1  -1.105537839380659E1  
                        -3.257111375195226E1  -9.971324369186810E1  -1.251819052032620E1   6.175057378242539E1  -1.816465032169114E1  -1.208754374157625E1  -2.257548632403178E1   7.871130762229961E1  
                        -2.872034171816401E1  -7.027541847788470E1  -1.816634441166289E1  -1.456248508646676E1  -1.841548168405689E1  -8.815141367359254E1  -2.964195610830402E1  -1.385532709817216E2  
                        -1.841863694000655E1  -8.953140756839668  -2.265597262414432E1   7.829225163646822E1  -2.962461004903052E1  -1.361508448507100E2  -1.318063028606507E1   1.141706787905695E2  
                        
 3.006576576576576E10   -1.911147122815470E1   1.618652037906929E2  -3.303154677004270E1   1.448469932009686E2  -2.665866164030746E1   1.705345790170842E2  -1.882450440553379E1  -1.195479968997490E2  
                        -3.331564927989037E1   1.466070027940714E2  -1.242731141556973E1   8.579209822337711  -1.837427960259381E1  -1.211797517795173E2  -2.181741124952174E1   3.368020186447988E1  
                        -2.658551097170511E1   1.705523839561428E2  -1.829939538736280E1  -1.240704833613659E2  -3.111270396311588E1   9.975527371824678E1  -2.917344250448263E1   1.076780274461608E2  
                        -1.890173504841387E1  -1.172309677405596E2  -2.185336263682900E1   3.299825936836847E1  -2.920958274097007E1   1.095219457115633E2  -1.348817492977572E1   6.271656192746005E1  
                        
 3.013582582582583E10   -1.451376677680413E1   2.933212755047519E1  -3.403025680733182E1   3.032269750924846E1  -2.559092509259065E1   4.382108303369019E1  -1.907891204712005E1   1.331933801067505E2  
                        -3.362426517163215E1   3.568536162760848E1  -1.226539236496229E1  -4.424112444868315E1  -1.850999768497913E1   1.310570053830578E2  -2.139717025912865E1  -1.304491345035203E1  
                        -2.566267326450494E1   4.377767959761898E1  -1.859313330714432E1   1.280980421394892E2  -1.663785392546182E1  -2.560811098412179  -2.920077595887637E1  -4.886238938879219  
                        -1.913079682378450E1   1.353244673316377E2  -2.141260423148593E1  -1.471191777459691E1  -2.923121323822466E1  -1.803662159206029  -1.256594741377980E1   7.766968500313220  
                        
 3.020588588588588E10   -1.339171601585883E1  -7.105842531634247E1  -3.569650530656799E1  -7.412269787435271E1  -2.558720369912585E1  -8.156840082203594E1  -1.922824821615727E1   2.738745140649088E1  
                        -3.557360189999714E1  -7.316741595669902E1  -1.182027863613039E1  -9.505893857425184E1  -1.867052649824284E1   2.358961218859829E1  -2.151708154884173E1  -6.219929544741598E1  
                        -2.566714677667693E1  -8.083628600624573E1  -1.867458616079268E1   2.148772610557928E1  -1.434916481132647E1  -7.513345005977863E1  -2.983611758924874E1  -1.166578220637977E2  
                        -1.934381501410160E1   2.950753052679363E1  -2.158884269970664E1  -6.273071844994964E1  -2.970582610928648E1  -1.145882614994157E2  -1.308254490657470E1  -4.440086085153040E1  
                        
 3.027594594594594E10   -1.588930688606655E1   1.654145241216225E2  -3.598139388821222E1  -1.708900017435412E2  -2.588449678138750E1   1.541718199322145E2  -1.889686842154148E1  -7.948107115435994E1  
                        -3.585251619902734E1  -1.678628331719201E2  -1.187613477170774E1  -1.372000230018738E2  -1.828946032628751E1  -8.420403135452432E1  -2.203028269866587E1  -1.093960845394792E2  
                        -2.600508132631185E1   1.542672378147949E2  -1.834172362566565E1  -8.594961784174977E1  -2.114706496716833E1   1.751096941841550E2  -3.032297375004201E1   1.338818338085902E2  
                        -1.889948135760977E1  -7.736882558488898E1  -2.201495226360292E1  -1.092989424025876E2  -3.014075489552005E1   1.355181334515736E2  -1.356126042887186E1  -9.731413753768619E1  
                        
 3.034600600600600E10   -1.500989523504988E1   3.833336974594365E1  -3.437068353219957E1   8.714287806046842E1  -2.722584730745946E1   3.284083913386802E1  -1.840178003488808E1   1.712523286555478E2  
                        -3.461115389813092E1   8.964109758694983E1  -1.274040038071675E1  -1.683487411675457E2  -1.819376816651683E1   1.662922265608990E2  -2.299686246628243E1  -1.532535497628483E2  
                        -2.726859835349466E1   3.262761968845084E1  -1.807125501532977E1   1.633537959399194E2  -1.632519854886596E1   5.039283733944343  -3.099527625850800E1   2.821407252805003E1  
                        -1.854320349116598E1   1.736139687109135E2  -2.301603842488263E1  -1.534967464600007E2  -3.100475316391235E1   2.962306532158183E1  -1.510544321238577E1  -1.304117481961108E2  
                        
 3.041606606606606E10   -1.442259507930822E1  -6.084940771723385E1  -3.313653436756485E1  -2.316889939379005E1  -2.824814946603955E1  -7.691313207468521E1  -1.827759025652263E1   6.057667003799872E1  
                        -3.310075684873259E1  -2.116129652223010E1  -1.359324213667975E1   1.681966377772756E2  -1.819672202836402E1   5.632042505888033E1  -2.345942781406339E1   1.719692005904252E2  
                        -2.826760194284642E1  -7.780761241864403E1  -1.810666882581572E1   5.354917459246533E1  -1.383391155726246E1  -7.636891836689092E1  -3.087011635951777E1  -7.512743948821522E1  
                        -1.825545518188766E1   6.241775495901531E1  -2.345956751424647E1   1.719532219699811E2  -3.093010615085537E1  -7.233729252451067E1  -1.742712591587497E1  -1.546117897618376E2  
                        
 3.048612612612613E10   -1.794493740352760E1  -1.737252337463476E2  -3.248106137920237E1  -1.385848063336464E2  -2.712355457104486E1   1.722725424937554E2  -1.824887455294320E1  -5.050029889215932E1  
                        -3.245031753223632E1  -1.363839076886022E2  -1.306950219515423E1   1.397944092062147E2  -1.811970024732944E1  -5.414934524123449E1  -2.215000994520514E1   1.336781392735217E2  
                        -2.726223832021105E1   1.726272690405071E2  -1.814358156711470E1  -5.663485062341793E1  -1.890681663678610E1  -1.575978041823573E2  -2.990059401986506E1   1.776781210840903E2  
                        -1.826286704619332E1  -4.897261596028780E1  -2.216616686050640E1   1.331043957575943E2  -2.994986146526633E1   1.799852877772415E2  -1.507804919720514E1   1.740527352129922E2  
                        
 3.055618618618618E10   -1.437623589778901E1   5.928116516013076E1  -3.274354898292497E1   1.044499864896875E2  -2.604499650752787E1   5.137155090745037E1  -1.850750474598191E1  -1.613937057627664E2  
                        -3.252978814972046E1   1.073720886270445E2  -1.382896485575352E1   9.449915309636087E1  -1.838715097411150E1  -1.638295442037578E2  -2.095914960234617E1   8.612860016190855E1  
                        -2.602081853943791E1   5.146763327008031E1  -1.832899361744715E1  -1.669365802125351E2  -1.912247284788456E1   2.802667375451421E1  -2.945353032511774E1   6.538624722756018E1  
                        -1.859413934211779E1  -1.582745788064966E2  -2.105543473284803E1   8.578587668942470E1  -2.945776372959690E1   6.673446360025031E1  -1.414130093608120E1   1.368137925937141E2  
                        
 3.062624624624624E10   -1.460586141100962E1  -4.574626817328324E1  -3.383434558329113E1  -8.868565759129258  -2.554628956235018E1  -7.325837573328667E1  -1.887602574408606E1   9.159435610215263E1  
                        -3.377519570496674E1  -6.154714901131212  -1.491344562940838E1   3.310739048602399E1  -1.864330466296020E1   8.760063422486390E1  -2.074951760975509E1   3.529006798373284E1  
                        -2.554458431808489E1  -7.304400573843644E1  -1.861071686208000E1   8.517796639580351E1  -1.368184253807751E1  -6.656667471491940E1  -2.973582338146424E1  -4.783213162595411E1  
                        -1.877204721048012E1   9.362325864940786E1  -2.068560985114540E1   3.496742293745948E1  -2.960166397805331E1  -4.530649671705464E1  -1.512672907500746E1   7.781617717846413E1  
                        
 3.069630630630631E10   -1.646971820205525E1  -1.656592783821448E2  -3.540469910079099E1  -1.125688160704943E2  -2.554893282843066E1   1.627790741400803E2  -1.877662415939720E1  -1.587641268244397E1  
                        -3.521766333635069E1  -1.099013167778815E2  -1.508529552759463E1  -3.303108978127351E1  -1.864225267439955E1  -1.876748404341061E1  -2.109727865586355E1  -1.389032298923010E1  
                        -2.558937497920978E1   1.615799513317586E2  -1.863518553417741E1  -2.181321055076838E1  -1.587740140142104E1  -1.564578213613877E2  -3.011327066773620E1  -1.584532465997432E2  
                        -1.878506922585819E1  -1.453541743448247E1  -2.100446981062862E1  -1.446806231713916E1  -3.015370834029207E1  -1.566119938475489E2  -1.567305873128958E1   2.351827770666328E1  
                        
 3.076636636636636E10   -1.611774402972872E1   6.442409179730457E1  -3.574950457337643E1   1.502253418896092E2  -2.643217438015835E1   3.670713701134977E1  -1.869424797110327E1  -1.245345807211021E2  
                        -3.568920304376019E1   1.524233547693573E2  -1.517625141769052E1  -8.742261336786120E1  -1.851643758736320E1  -1.271416339278613E2  -2.174433854870628E1  -6.102205296061037E1  
                        -2.638765112242322E1   3.712336881378366E1  -1.849170086607269E1  -1.305840742654258E2  -1.921834292155132E1   4.672542212045633E1  -3.053057670885129E1   9.143877919867174E1  
                        -1.869265327697506E1  -1.217341761678766E2  -2.169763351803534E1  -6.178402718489039E1  -3.060565987004253E1   9.328705479847129E1  -1.865280419417764E1  -3.770177696133955E1  
                        
 3.083642642642642E10   -1.668504801607491E1  -3.944394288474517E1  -3.467559603601364E1   4.949687104786590E1  -2.787918387524256E1  -8.193832537528277E1  -1.846231770632092E1   1.271665043691502E2  
                        -3.473339579100391E1   5.387328872222834E1  -1.650381877591945E1  -1.263257069304418E2  -1.834612597809694E1   1.239844270030490E2  -2.270390578014683E1  -1.038258395531403E2  
                        -2.792696564346572E1  -8.260514433954035E1  -1.837663240876794E1   1.203485332288887E2  -1.468535606347666E1  -6.534250439444332E1  -3.128587207001644E1  -1.485832400800457E1  
                        -1.849173285053547E1   1.293751272478912E2  -2.264718602150283E1  -1.049116863237885E2  -3.149357938420287E1  -1.244771200032456E1  -1.936131812632488E1  -9.239028486336821E1  
                        
 3.090648648648649E10   -1.857103849037640E1  -1.448067369324998E2  -3.303077999387035E1  -5.543732787629930E1  -2.880779248972186E1   1.664577259569232E2  -1.817761211231154E1   1.747664934330282E1  
                        -3.312088719290411E1  -5.210833413716583E1  -1.732387030480723E1  -1.373427593298737E2  -1.818687024503587E1   1.332507342956954E1  -2.310320012728228E1  -1.400730234482080E2  
                        -2.874915603560826E1   1.674582347492602E2  -1.832046907208265E1   1.170998070573287E1  -1.612285299984308E1  -1.527550770231987E2  -3.161163701087151E1  -1.179707316700568E2  
                        -1.818312867614946E1   1.992187183571192E1  -2.315541804624745E1  -1.413803386226469E2  -3.161668603456660E1  -1.159820811679645E2  -2.133065604563867E1  -1.044214624273607E2  
                        
 3.097654654654654E10   -2.025790909703588E1   8.598966903791583E1  -3.198832849208302E1  -1.699078891368166E2  -2.814236401828362E1   5.597767843599165E1  -1.808052113728878E1  -9.351276678120924E1  
                        -3.194098431830313E1  -1.668999723905595E2  -1.496885930551316E1  -1.567019537911401E2  -1.815344359201576E1  -9.563281267323211E1  -2.217317153567159E1  -1.773772372767609E2  
                        -2.810388239541874E1   5.616401502389606E1  -1.816302576048379E1  -9.872203912133074E1  -2.194428175695610E1   7.018852131387651E1  -3.108267882112891E1   1.366450256791572E2  
                        -1.812701940055665E1  -9.098684320516395E1  -2.223392596743039E1  -1.781708603634631E2  -3.101251854822713E1   1.399857861439949E2  -2.027981532399614E1  -1.250466184750058E2  
                        
 3.104660660660661E10   -1.750094874411215E1  -1.722106105556477E1  -3.192249783215769E1   7.491753723166491E1  -2.709128782869829E1  -6.363527936992689E1  -1.820088302961840E1   1.561298741717083E2  
                        -3.187068661317402E1   7.874533920357052E1  -1.386070289582167E1   1.664526405004953E2  -1.824149083753651E1   1.551589516120772E2  -2.085730261572326E1   1.359226078674034E2  
                        -2.713656077665226E1  -6.374991611639143E1  -1.843020637047985E1   1.518291208059569E2  -1.645314566094785E1  -5.778815577670668E1  -3.086098809119292E1   2.691867270011776E1  
                        -1.821645604796972E1   1.590612996684284E2  -2.094615329500995E1   1.358329731231700E2  -3.088608470894540E1   3.000570524902913E1  -1.669041988837008E1  -1.582933723467784E2  
                        
 3.111666666666666E10   -2.023967033151384E1  -1.276105500203507E2  -3.246221850336841E1  -3.418538234292744E1  -2.667781439885366E1   1.702594831273067E2  -1.820907054553564E1   4.733357524738445E1  
                        -3.225945874289304E1  -3.305630111476223E1  -1.468644972375850E1   1.216923933737553E2  -1.841199861245623E1   4.614234653926416E1  -2.034472533127714E1   8.603174787475069E1  
                        -2.667648447786385E1   1.714365221962173E2  -1.834327226686643E1   4.390634567060556E1  -1.657897429472911E1  -1.500353248398592E2  -3.063489885099788E1  -8.032824769610262E1  
                        -1.819122942887159E1   4.954071879085436E1  -2.036652884325058E1   8.595290534179070E1  -3.053909453960621E1  -7.898600571432634E1  -1.745118777973900E1   1.673329416354706E2  
                        
 3.118672672672672E10   -2.242717069864430E1   1.216892831562988E2  -3.255424412988927E1  -1.430604432510104E2  -2.702966622373819E1   4.348211962265576E1  -1.820906034406298E1  -6.206275404671950E1  
                        -3.280133129860385E1  -1.377644434020801E2  -1.840699325703244E1   7.281773979297060E1  -1.819685601124462E1  -6.216412766293051E1  -2.040856188524589E1   3.560410534974260E1  
                        -2.706029664572757E1   4.361274548800222E1  -1.824382991632767E1  -6.518422078364357E1  -2.266667999863445E1   9.342678259326385E1  -3.068194766483374E1   1.695529207661573E2  
                        -1.828830543561923E1  -5.978840138055185E1  -2.037813857436614E1   3.489379146281701E1  -3.078379186491032E1   1.720434855235572E2  -1.999529989441352E1   1.169962412637755E2  
                        
 3.125678678678679E10   -2.278241332603456E1  -1.564041726457394E1  -3.279961892323779E1   1.125386394831029E2  -2.855936410436845E1  -8.289535236478231E1  -1.824122541165826E1  -1.715370369906609E2  
                        -3.251057357039574E1   1.160502972326106E2  -2.664015276181877E1   3.454944514897187  -1.823243080396489E1  -1.722353113834670E2  -2.114205979900546E1  -1.335311453540901E1  
                        -2.860837015664633E1  -8.291708065483500E1  -1.825994364903834E1  -1.749943363816891E2  -1.951986351631275E1  -5.458013578993515E1  -3.076675466593635E1   5.984825870314434E1  
                        -1.824892301339838E1  -1.695335358203882E2  -2.117405242114677E1  -1.343580761558105E1  -3.075724851836778E1   6.336299035340801E1  -2.401858201515169E1   7.742295054268584E1  
                        
 3.132684684684684E10   -2.096012340988551E1  -1.023433107692878E2  -3.214664672488204E1   8.803832592449357  -3.104939156187310E1   1.597537517715931E2  -1.825733029145060E1   7.906660569771762E1  
                        -3.230611808819304E1   1.357561595607266E1  -3.043527039320714E1  -1.058718930333726E2  -1.821652178469655E1   7.914413307255084E1  -2.208070522669293E1  -5.708294581824503E1  
                        -3.113808179064315E1   1.598056871913599E2  -1.820592816261488E1   7.632621549812517E1  -1.877501584233958E1  -1.459569694616912E2  -3.114527729880629E1  -4.684047467673283E1  
                        -1.829540293580089E1   8.127899554899405E1  -2.200638001432614E1  -5.713237343192407E1  -3.125138531543993E1  -4.457767276237365E1  -5.185302801188409E1  -3.039204111908799E1  
                        
 3.139690690690691E10   -2.230692748678268E1   1.798699085344227E2  -3.124730931635379E1  -9.779647086249572E1  -3.266117740411341E1   5.731658630574866E1  -1.825821150859427E1  -3.035562962882804E1  
                        -3.100262338628185E1  -9.537364672736575E1  -3.077966319145675E1  -1.156631587606947E2  -1.811489945811376E1  -3.070376087970190E1  -2.271173144021142E1  -9.617393812087401E1  
                        -3.251604410763326E1   5.661964877739429E1  -1.811789842810585E1  -3.377724812969477E1  -2.473393531478037E1   1.104210179017817E2  -3.123465169135320E1  -1.528128992369787E2  
                        -1.823854873322565E1  -2.829587699546601E1  -2.275352696926355E1  -9.716068789665222E1  -3.111628732424626E1  -1.508635870323433E2  -3.642286997921386E1  -1.175158385176685E2  
                        
 3.146696696696697E10   -3.011391696239524E1   3.797696660839135E1  -3.034469498978475E1   1.502296840921128E2  -3.126067132466306E1  -5.176904085923400E1  -1.821953535536706E1  -1.405657627475283E2  
                        -3.028833793229070E1   1.535177900662772E2  -2.267343216028501E1  -1.116228460116357E2  -1.813314007213922E1  -1.405229362589694E2  -2.232472847057768E1  -1.337467841829307E2  
                        -3.130387561974714E1  -5.091546884382272E1  -1.822243130884125E1  -1.435946326240724E2  -2.303751086568422E1  -5.360290530942761E1  -3.121702369559768E1   1.002253115135766E2  
                        -1.826425334493310E1  -1.380086629928088E2  -2.233726432472561E1  -1.336687675244068E2  -3.132825933469786E1   1.023517524212162E2  -3.989894963766525E1   2.942499715732789E1  
                        
 3.153702702702702E10   -2.043601716647218E1  -7.347240424146209E1  -3.018034197210618E1   3.859696353355691E1  -3.015125414357243E1  -1.731070376738678E2  -1.827276727720419E1   1.101656484314699E2  
                        -2.993769849523650E1   4.129948491736990E1  -1.725980248106858E1  -1.411044642311254E2  -1.831519266019519E1   1.098211531237583E2  -2.143125594549859E1  -1.757887132946062E2  
                        -3.020372276461417E1  -1.722980083666766E2  -1.821647798107320E1   1.073776148072173E2  -2.156444112536424E1  -1.370996088045657E2  -3.092929032763027E1  -4.426002181121732  
                        -1.830076182051763E1   1.122150797600786E2  -2.135921734191260E1  -1.764423858725237E2  -3.102188975125512E1  -2.154814070835982  -2.966818332971323E1  -8.052658957724947E1  
                        
 3.160708708708709E10   -2.125646527216748E1  -1.547225342670197E2  -2.988129739647182E1  -7.143191420691416E1  -3.031304609090415E1   6.008096018264622E1  -1.837048403569516E1   8.134249354001570E-1  
                        -2.996387829168403E1  -6.873663757759070E1  -1.526055027874867E1  -1.753534165180772E2  -1.830442145199043E1   1.092364349726068  -2.049304808144733E1   1.374084070826453E2  
                        -3.019264951900759E1   6.034701439931814E1  -1.831612417844399E1  -1.597192354849566  -2.677090204306525E1   1.456677055995357E2  -3.065124580066748E1  -1.106772075096575E2  
                        -1.839818643545308E1   3.152831718126826  -2.047002947264378E1   1.361944259536770E2  -3.076797481918108E1  -1.092623310931589E2  -2.011609833802308E1  -1.152091280462181E2  
                        
 3.167714714714714E10   -2.582080953622684E1   9.050458756149081E1  -2.979742909295230E1   1.791048038314454E2  -3.160435395541956E1  -6.776952310341135E1  -1.836029608565177E1  -1.087082786966126E2  
                        -2.958659331299442E1  -1.790361126305122E2  -1.561180868029316E1   1.530771796812009E2  -1.832361311448184E1  -1.079196049277881E2  -2.013004381891820E1   8.697714105344656E1  
                        -3.166454631693873E1  -6.808905417897471E1  -1.832621776579305E1  -1.106690148812860E2  -3.683213720295871E1  -2.244579972384435E1  -3.029945402310969E1   1.404219486840700E2  
                        -1.832824040512418E1  -1.060984752010153E2  -2.014883512223610E1   8.632366660520088E1  -3.026032594464953E1   1.439243102234561E2  -1.897363983542187E1  -1.485698332790931E2  
                        
 3.174720720720720E10   -2.143031185010349E1  -6.502769506946805E1  -2.956650051303406E1   6.925985139623013E1  -3.464515317799814E1   1.692029584414849E2  -1.839750082169002E1   1.419149654332936E2  
                        -2.963132261872320E1   7.076652573801169E1  -1.835641894132908E1   1.276130093721909E2  -1.824979877338591E1   1.421083329974875E2  -2.038769172558173E1   3.764128995596784E1  
                        -3.462398136493609E1   1.700230032137977E2  -1.825068195611284E1   1.398521471138291E2  -2.542689625403769E1  -1.070292419078692E2  -2.973195891385988E1   3.234412703757998E1  
                        -1.842050686354955E1   1.440417286971493E2  -2.033743548209756E1   3.710147785022206E1  -2.972192012553035E1   3.281914898839737E1  -1.938914403433176E1   1.675557530334643E2  
                        
 3.181726726726727E10   -1.939627492739154E1  -1.432856031073131E2  -2.932596427725465E1  -3.939834838955446E1  -3.898719747509200E1   6.746024016422877E1  -1.839040244030621E1   3.251956808903092E1  
                        -2.919531666577981E1  -3.767557367514755E1  -2.152125879269811E1   1.149061517317451E2  -1.813793651349653E1   3.193474920573817E1  -2.103602454863559E1  -1.037006491387541E1  
                        -3.873097415534745E1   6.889946832280076E1  -1.815464116996446E1   3.026570194639223E1  -2.741346388130713E1   1.554407508217266E2  -2.941988687450508E1  -7.663779100270786E1  
                        -1.835138922125612E1   3.443107445582184E1  -2.107592961706116E1  -1.097562727287503E1  -2.945589708585460E1  -7.539055983988909E1  -2.095267123115681E1   1.514331813555437E2  
                        
 3.188732732732732E10   -2.635897441807970E1   1.169390971278671E2  -2.895726064863579E1  -1.487588056293456E2  -3.780547459184247E1  -1.249575374412965E1  -1.835663956193474E1  -7.775080836912161E1  
                        -2.897102505778402E1  -1.462697646414980E2  -2.325972917341148E1   1.079434775967481E2  -1.813851881373636E1  -7.747412615753193E1  -2.199039969947477E1  -5.347159701190363E1  
                        -3.762006439958581E1  -1.341469718081909E1  -1.820508189093583E1  -7.942319377189295E1  -3.452920552269066E1   3.601485235700995E1  -2.934533419250794E1   1.727733379401812E2  
                        -1.829568323555745E1  -7.549919717065924E1  -2.195450571435706E1  -5.345470395965015E1  -2.931713855778544E1   1.728191400291741E2  -2.421022198753233E1   1.608339967660524E2  
                        
 3.195738738738739E10   -2.270208185555066E1  -4.611228807613434E1  -2.864490409393084E1   1.008066244331791E2  -3.459159912536351E1  -1.291933349473205E2  -1.847464202610732E1   1.723966258437636E2  
                        -2.875060166038744E1   1.034772543953951E2  -2.604790576153462E1   7.576095557641338E1  -1.824535388712440E1   1.736280162712612E2  -2.235352304554157E1  -9.192711590691964E1  
                        -3.455433875555819E1  -1.283089832965632E2  -1.819991249837405E1   1.708531902460054E2  -3.163238240687097E1  -8.701041964267688E1  -2.937696617088019E1   6.361279321536387E1  
                        -1.842602928852028E1   1.744218697972663E2  -2.232009767408502E1  -9.232324296824559E1  -2.939034419253850E1   6.647808621563684E1  -2.419470337696286E1   1.292039251113832E2  
                        
 3.202744744744745E10   -1.903992369638694E1  -1.262772006800441E2  -2.838731010893339E1  -9.100554519057800  -3.376700979673825E1   1.027501875137269E2  -1.857123248801101E1   6.244634590352089E1  
                        -2.845055936655089E1  -6.423019211243225  -3.194196597425962E1  -1.813752391313101E1  -1.831057662391104E1   6.340379552188718E1  -2.183376610915708E1  -1.297443791206395E2  
                        -3.376457122566697E1   1.034070813369230E2  -1.839778595886619E1   6.099688515447958E1  -3.174916959934875E1  -1.583235086736182E2  -2.940164767299466E1  -4.347328276840051E1  
                        -1.857564470498973E1   6.476441163576605E1  -2.182901199387521E1  -1.301717279826801E2  -2.947603463739577E1  -4.141318611514478E1  -2.229203911663376E1   8.569224732811837E1  
                        
 3.209750750750750E10   -2.371707471996242E1   1.271283032484689E2  -2.808623567134728E1  -1.201327242790607E2  -3.549677041866515E1  -2.485852915508666E1  -1.869820248116861E1  -4.694989411606380E1  
                        -2.808985974787090E1  -1.172691516568760E2  -2.431838149086303E1  -1.125247793792310E2  -1.860820644232523E1  -4.657719578462837E1  -2.074521553043401E1  -1.734972428215053E2  
                        -3.512545809507859E1  -2.311687427117621E1  -1.853044914177951E1  -4.848369240148423E1  -2.766174507358047E1   1.038976782042856E2  -2.923511966242889E1  -1.508790930869530E2  
                        -1.862861732294945E1  -4.478686164845261E1  -2.075338238426258E1  -1.739378030915488E2  -2.913876434357269E1  -1.497837684206641E2  -2.797975668548413E1   3.941326416590330  
                        
 3.216756756756757E10   -2.134646474037402E1  -1.899173378014400E1  -2.801830807371061E1   1.293065433800149E2  -3.823878660385915E1  -1.347950262802910E2  -1.877742865478057E1  -1.561157964911486E2  
                        -2.807614670744476E1   1.328278251167058E2  -1.940760617763666E1  -1.600191817526119E2  -1.854421377212606E1  -1.549153255785747E2  -1.997485288630164E1   1.383739944962522E2  
                        -3.835058523087541E1  -1.351961576917143E2  -1.861913232521431E1  -1.578848819329152E2  -2.880428896305492E1  -1.233230530893948E1  -2.889526686241811E1   1.009549664734081E2  
                        -1.878580814259911E1  -1.539009998044378E2  -1.997278913795448E1   1.374715237032254E2  -2.891135471246744E1   1.026256850833294E2  -2.113409238248106E1  -7.684182692720869E1  
                        
 3.223762762762763E10   -2.077554338611491E1  -1.139022240112158E2  -2.779292213374650E1   2.085060917486086E1  -3.980471739754115E1   1.358732424775852E2  -1.886517505386397E1   9.500913620201729E1  
                        -2.788784122899611E1   2.292378044062097E1  -1.808234122243582E1   1.692949457097609E2  -1.881586184836226E1   9.658715531722852E1  -1.967303082925022E1   8.793422931252033E1  
                        -3.974557851700835E1   1.376891109665244E2  -1.863349286559241E1   9.360706559146703E1  -3.103930882479250E1  -1.565644655803320E2  -2.859257018779152E1  -7.771689739977597  
                        -1.887010877152463E1   9.718731184812820E1  -1.968132086995674E1   8.775054785357943E1  -2.862197163056408E1  -6.132682066957914  -2.050318645165497E1  -1.210875492456617E2  
                        
 3.230768768768768E10   -2.600447772966045E1   1.536640677291322E2  -2.750392172374845E1  -8.939849388006397E1  -3.675057175834245E1   3.712644884918758E1  -1.891448208894308E1  -1.403588163542122E1  
                        -2.763909798933133E1  -8.750782237006307E1  -1.883131913767348E1   1.465267478215503E2  -1.871014127973137E1  -1.253536595303246E1  -2.002500576217788E1   3.781638017334593E1  
                        -3.660268694438113E1   3.974566908939931E1  -1.861691298507935E1  -1.554629230568550E1  -2.590490270331701E1   7.342378894585556E1  -2.826625171563414E1  -1.159548927911088E2  
                        -1.889437287655160E1  -1.182302420715859E1  -1.999923097910296E1   3.751646813094385E1  -2.827707782541879E1  -1.134745593634874E2  -1.880540151332192E1  -1.602072209616634E2  
                        
 3.237774774774775E10   -2.794122929034112E1   1.192386226725019E1  -2.736579495850955E1   1.600930998649404E2  -3.397838136402947E1  -7.914809745593152E1  -1.882077138080110E1  -1.237143069615260E2  
                        -2.734683505965440E1   1.626938217585158E2  -1.945218221170640E1   1.329990602137073E2  -1.857663916199661E1  -1.226996672719969E2  -2.075642035029708E1  -9.743165062811993  
                        -3.380308245487755E1  -7.959749734983403E1  -1.862262918687995E1  -1.247906232965661E2  -2.994741938657148E1   1.597574071347069E1  -2.799673198150153E1   1.340675117528668E2  
                        -1.879561340716513E1  -1.214759203100960E2  -2.070168497256720E1  -1.023409145518898E1  -2.793656966493077E1   1.366339994251746E2  -1.879763432378716E1  -1.707971112466011E2  
                        
 3.244780780780780E10   -2.253732580454128E1  -7.827015782970317E1  -2.705270106124242E1   4.939452232477618E1  -3.264656040572842E1   1.548505152689866E2  -1.878112094722068E1   1.266240677656717E2  
                        -2.717879334366481E1   5.224258947792399E1  -1.989195529180820E1   1.235041768931133E2  -1.849035730064173E1   1.285271381452830E2  -2.160421642841142E1  -5.250772251772193E1  
                        -3.279410476320194E1   1.538744367711107E2  -1.854094050285976E1   1.259853150057697E2  -3.622099461607743E1  -4.047135545379472E1  -2.758742279787856E1   2.501341094571997E1  
                        -1.884385433473910E1   1.285694083562874E2  -2.164644035771880E1  -5.258324367240068E1  -2.765088574086493E1   2.711445042515063E1  -2.042703861523644E1   1.769664906842194E2  
                        
 3.251786786786787E10   -2.759189377520594E1  -1.645734971569072E2  -2.698149876970705E1  -6.082897347508075E1  -3.339261958496502E1   3.035929754543220E1  -1.892426947578884E1   1.659300110220010E1  
                        -2.707191868618826E1  -5.801867532505948E1  -2.091267782542962E1   1.122382908638658E2  -1.862815918239719E1   1.792752540722691E1  -2.196972900709093E1  -9.125156637965299E1  
                        -3.349202768957420E1   3.001382690704267E1  -1.858032886115629E1   1.520224607553286E1  -3.138227811761621E1   1.135775392882613E2  -2.751650383806791E1  -8.575596617840509E1  
                        -1.891509008881121E1   1.871479099937253E1  -2.191700510122600E1  -9.170608720187791E1  -2.738450085076805E1  -8.467187309949848E1  -1.984904840032478E1   1.511783872176134E2  
                        
 3.258792792792793E10   -2.413407426599046E1   3.006734325381002E1  -2.694076680918543E1  -1.723387484936510E2  -3.489087913650804E1  -8.029448563329017E1  -1.896636900694341E1  -9.314634831450147E1  
                        -2.699516397151156E1  -1.682025691648602E2  -2.375716047312822E1   9.432037596794194E1  -1.867121222297524E1  -9.177242536266067E1  -2.138518269019132E1  -1.302706189712120E2  
                        -3.480442898971381E1  -7.928696696593028E1  -1.879977632540608E1  -9.398474409053574E1  -2.510976510887610E1   4.428800984928552E1  -2.749203853328416E1   1.643969547360617E2  
                        -1.897156674139427E1  -9.041678539380774E1  -2.149319368125090E1  -1.305067534372909E2  -2.745781860755691E1   1.660856547631018E2  -1.890746046658324E1   1.343141702033729E2  
                        
 3.265798798798798E10   -2.348735976582294E1  -4.886435821367212E1  -2.678654071981654E1   7.754699600712388E1  -3.375948309361897E1   1.788192386579060E2  -1.912547500591664E1   1.566496276483699E2  
                        -2.682643577436603E1   7.979520817996132E1  -3.103902277728994E1   8.664234518272848E1  -1.883553801540234E1   1.591218584415514E2  -2.041614583214386E1  -1.745371380148543E2  
                        -3.373632873617339E1   1.773427880885459E2  -1.883734642796759E1   1.565581509329614E2  -3.121991413790170E1  -2.323533605481303E1  -2.744005985114489E1   5.471350636878645E1  
                        -1.905889282438076E1   1.592806887084113E2  -2.039432430597282E1  -1.745168447264533E2  -2.743909340631755E1   5.616012646141152E1  -2.299020017032230E1   1.013243416142791E2  
                        
 3.272804804804805E10   -3.301000212482634E1  -1.080661447107737E2  -2.679104807646143E1  -3.308761000800411E1  -3.164741705433977E1   6.222352382640047E1  -1.929327522509199E1   4.676784281680725E1  
                        -2.704812362926765E1  -2.982191809424799E1  -3.184046675346503E1   1.662585074438972E2  -1.900753445381075E1   4.886458032757639E1  -1.959409562660452E1   1.363841524799978E2  
                        -3.155895817333644E1   6.262723759100601E1  -1.902149983119609E1   4.705942648019962E1  -3.381302967668972E1   3.223099218311227E1  -2.746458477794575E1  -5.455847514878388E1  
                        -1.920643928985759E1   4.958187858022735E1  -1.956974991775221E1   1.367229806855737E2  -2.746810524186974E1  -5.367979153834325E1  -2.718068784874651E1   4.358236432458347E1  
                        
 3.279810810810811E10   -2.776209698759275E1   4.940515881273037E1  -2.693277847074203E1  -1.428371093654128E2  -3.028939096542037E1  -5.941479901285885E1  -1.935410093939928E1  -6.251336859369999E1  
                        -2.687082719295519E1  -1.391094785170310E2  -2.595674059222619E1   1.676526710768349E2  -1.913555931215782E1  -5.978348707350222E1  -1.942220238668785E1   8.561707046488058E1  
                        -3.047420626525764E1  -5.935111069982420E1  -1.915120306370764E1  -6.226615507712745E1  -3.018945118530115E1   3.669524020332073E1  -2.739416214787797E1  -1.619429112744022E2  
                        -1.937777046243071E1  -6.009350729378362E1  -1.929778273852866E1   8.532290618340055E1  -2.744141562390352E1  -1.604111611975011E2  -4.021015280191827E1  -1.877610441475274E1  
                        
 3.286816816816817E10   -2.106319236294802E1  -8.243934961095480  -2.678767074970115E1   1.081382449676690E2  -3.012150433040251E1   1.772222173323107E2  -1.950242439970796E1  -1.721121743183033E2  
                        -2.668277105661403E1   1.114147386132086E2  -2.558678925514621E1   1.613131580277791E2  -1.916894233008055E1  -1.683319424348978E2  -1.966585748830347E1   3.503755321069135E1  
                        -3.004160562643837E1   1.770484836148575E2  -1.914237560167090E1  -1.703943582991005E2  -2.431854706624116E1   1.747493349919838E1  -2.718068951296036E1   8.992792659875777E1  
                        -1.950987522647756E1  -1.694989432904459E2  -1.959855236360622E1   3.483648302673684E1  -2.722678444755427E1   9.202498142677317E1  -2.822485291149206E1  -1.478957497465958E2  
                        
 3.293822822822823E10   -2.289867404648467E1  -9.446512916082956E1  -2.657033548056101E1  -1.451880921767762  -3.033278890367031E1   5.810261655956442E1  -1.962688191119409E1   7.913139078122211E1  
                        -2.645687820450013E1   9.513249947910044E-2  -2.539622064036118E1   1.704252196147861E2  -1.922146382720274E1   8.239848055707117E1  -2.042844937578995E1  -1.420495749158783E1  
                        -3.014109359665154E1   5.796687447801102E1  -1.931498455894931E1   8.064316782375904E1  -2.536307869589130E1  -5.958946476017375E1  -2.666403601817780E1  -1.990913753624294E1  
                        -1.964159976476594E1   8.178666392764229E1  -2.047877280588029E1  -1.395115351638329E1  -2.677666184611057E1  -1.862102804036123E1  -2.715138223797961E1  -1.423421497078373E2  
                        
 3.300828828828828E10   -2.841068668033819E1   9.205517251893600E1  -2.636678677270647E1  -1.131601901548851E2  -3.015330958162262E1  -5.652845849722041E1  -1.970821745353682E1  -3.021989297441117E1  
                        -2.626838369196756E1  -1.099790956563844E2  -2.105916026996876E1   1.736839147213389E2  -1.923281335579398E1  -2.689037444374826E1  -2.156733667119351E1  -5.716369565764182E1  
                        -3.022617603131711E1  -5.674432499802599E1  -1.928282088742900E1  -2.885136388871884E1  -3.273331940037735E1   7.774645494014253E1  -2.640622859554937E1  -1.296438127661233E2  
                        -1.964871114964312E1  -2.789255912187279E1  -2.151318392414205E1  -5.731146840676724E1  -2.655438646983825E1  -1.285578539641803E2  -2.398372145937532E1  -1.376592204632853E2  
                        
 3.307834834834835E10   -2.017497978124270E1  -1.159892798667247E1  -2.640478905149829E1   1.365727757206621E2  -2.955148640009768E1  -1.692090322720691E2  -1.983289900286981E1  -1.395716745025697E2  
                        -2.634202692783957E1   1.387523639318344E2  -1.753034858013166E1   1.557804180629781E2  -1.948043041463394E1  -1.360296005651335E2  -2.211223050796057E1  -9.630729097162256E1  
                        -2.948309926051227E1  -1.681025754206236E2  -1.938279279380041E1  -1.386900291318609E2  -2.106963871163438E1  -1.018794177351367  -2.629270903570077E1   1.185867201656918E2  
                        -1.991245066482039E1  -1.370340397014974E2  -2.211983888665058E1  -9.660113548544237E1  -2.643233400849920E1   1.204318528037040E2  -1.736861234411182E1  -1.599799320874093E2  
                        
 3.314840840840841E10   -2.339796130639565E1  -5.895232559609547E1  -2.624566557414594E1   2.554940416202152E1  -2.803407346418093E1   7.412295954588713E1  -1.992304213966359E1   1.116934881223425E2  
                        -2.637247769805412E1   2.819542507615097E1  -1.623303056504643E1   1.283128899094700E2  -1.946093714994881E1   1.142511707178147E2  -2.152621076239353E1  -1.339375161159693E2  
                        -2.786603481851318E1   7.381551604573474E1  -1.949954890640236E1   1.124424918303563E2  -2.294169882791422E1  -5.915398927864865E1  -2.629647269847515E1   8.191461470363738  
                        -1.993033015849905E1   1.138592344631915E2  -2.153610976930922E1  -1.340083604774090E2  -2.633070309524956E1   1.101897828606227E1  -1.434342597563250E1   1.746619507634377E2  
                        
 3.321846846846846E10   -4.254028194243362E1  -1.169438697146291E2  -2.653448704765253E1  -8.502686549467860E1  -2.666691489756328E1  -5.142574669040868E1  -1.990082092241456E1   2.310140498186240  
                        -2.645056079787394E1  -8.322093676988595E1  -1.650171788070313E1   9.567738754122209E1  -1.970842458136321E1   5.769751552499510  -2.040288184003121E1  -1.794791113593556E2  
                        -2.670708203674884E1  -5.209745997896302E1  -1.950794953171424E1   2.600436725383915  -4.323084199583517E1  -4.849815240802865E1  -2.636348192494894E1  -1.019436415479536E2  
                        -2.000648230697149E1   4.417785700633512  -2.037831949696411E1  -1.796367719566816E2  -2.628148008267657E1  -1.004709088082135E2  -1.439161058900948E1   1.401418332749125E2  
                        
 3.328852852852853E10   -2.412113483207910E1   3.005002127587149E1  -2.657374059075120E1   1.645039498023749E2  -2.679023548572344E1  -1.794524219894581E2  -1.991682496429367E1  -1.078530618636191E2  
                        -2.659080211354232E1   1.678245634660758E2  -1.805755723832577E1   6.754984983716165E1  -1.978106577120768E1  -1.049639363566784E2  -1.981803988365662E1   1.305395513230927E2  
                        -2.677554729008909E1  -1.795150512868017E2  -1.964554795475214E1  -1.067372246156396E2  -2.120061345402614E1   9.330090487947000  -2.655756832742220E1   1.483020288982467E2  
                        -2.002660057304915E1  -1.050514008321881E2  -1.973754474859139E1   1.311064506580367E2  -2.659123433217299E1   1.500335258103578E2  -1.466183593402283E1   1.062517487888786E2  
                        
 3.335858858858859E10   -1.863180136234632E1  -5.185373478545245E1  -2.663144161157955E1   5.582526828275883E1  -2.792894116989382E1   5.943222198727836E1  -2.013553807750374E1   1.428421020350975E2  
                        -2.658127272794128E1   5.873362474949399E1  -1.974869763365225E1   4.207303745682894E1  -1.992414243174600E1   1.458220735112956E2  -1.975101995678050E1   7.837408669830154E1  
                        -2.773513235522797E1   5.978760600249184E1  -1.983477860902965E1   1.439717163448636E2  -1.749293699034205E1  -5.288424971609550E1  -2.652936287945045E1   4.081514740544494E1  
                        -2.012883287909755E1   1.454121897339712E2  -1.968833110176414E1   7.790982506083631E1  -2.656700327566369E1   4.202306379919619E1  -1.647269615044857E1   8.555542002469595E1  
                        
 3.342864864864865E10   -2.460344048483630E1  -1.397218625746178E2  -2.647525296302407E1  -5.356727894463109E1  -2.837276973211928E1  -5.388973463736033E1  -2.030665406705256E1   3.235208998721940E1  
                        -2.641869052967964E1  -5.187212755027956E1  -2.154949878435885E1   3.751129850509564  -1.984517607939028E1   3.635029848456646E1  -2.073392495332624E1   2.797114968340182E1  
                        -2.838333735814657E1  -5.356638584134888E1  -1.989515691530922E1   3.513905645952668E1  -2.413831626790362E1  -1.280267025421030E2  -2.640383425960814E1  -6.859886866313939E1  
                        -2.027989741294617E1   3.501454073938192E1  -2.073791495229834E1   2.811933898949854E1  -2.635961326424248E1  -6.535603423394564E1  -1.897198700803653E1   5.531608542154137E1  
                        
 3.349870870870871E10   -2.844855219076346E1   2.382810188968842E1  -2.638662757101467E1  -1.647822757641008E2  -2.761134741393459E1  -1.668232362405709E2  -2.061078250189175E1  -7.815499663538687E1  
                        -2.641598180245560E1  -1.621934954935898E2  -2.127570495251747E1  -5.636130476472264E1  -2.012437515864826E1  -7.312927366600665E1  -2.172092171192322E1  -1.709660429590805E1  
                        -2.760463312810697E1  -1.653710251046956E2  -2.006420281879995E1  -7.448864349211114E1  -2.110009400904003E1   3.104009445643821  -2.616935619081592E1  -1.784189446656400E2  
                        -2.064301925714320E1  -7.539047993643496E1  -2.174076942231056E1  -1.734224995413915E1  -2.621527998706721E1  -1.766771480078006E2  -1.855835846820111E1   9.633722974356548  
                        
 3.356876876876876E10   -2.113503412448054E1  -5.722993862907723E1  -2.641165472333910E1   8.426025087126283E1  -2.623523073198709E1   7.546119268956488E1  -2.106682218103285E1   1.734536790202652E2  
                        -2.647951232124325E1   8.632268152579694E1  -1.767418529341925E1  -1.203483863769357E2  -2.028752880823819E1   1.797072280946898E2  -2.270310144709202E1  -5.732602038440767E1  
                        -2.625129192747169E1   7.539170735102688E1  -2.036294298210805E1   1.771253610063798E2  -1.672101249843259E1  -6.083983519103624E1  -2.602395715543051E1   7.180054985298851E1  
                        -2.101574078388632E1   1.759153479897911E2  -2.267070771264593E1  -5.787754818988104E1  -2.600901854409631E1   7.394198998814647E1  -1.840094773078080E1  -5.091898943191227E1  
                        
 3.363882882882883E10   -1.893545310232294E1  -1.070546357512198E2  -2.665199758394756E1  -2.758519136467110E1  -2.524393764789975E1  -5.054546956476651E1  -2.137690172532198E1   6.632163447538838E1  
                        -2.667604237342403E1  -2.465458480173651E1  -1.431289679356748E1  -1.678834587981961E2  -2.038825906933514E1   7.024280764764924E1  -2.241523876434783E1  -9.602768845248072E1  
                        -2.512669940471715E1  -4.948119148828761E1  -2.036558282001170E1   6.888620944514919E1  -2.174972988843893E1  -1.101566878823214E2  -2.591934571664898E1  -4.014184416065567E1  
                        -2.130376977970690E1   6.863687675598371E1  -2.239367876560139E1  -9.692983294761112E1  -2.582466136443014E1  -3.852834045059546E1  -1.422307038701196E1  -1.163440804800732E2  
                        
 3.370888888888889E10   -2.449709369768629E1   1.549583498653612E2  -2.702691435835426E1  -1.363789723641316E2  -2.488792147153605E1  -1.786118377888410E2  -2.133906327711631E1  -4.067699781080508E1  
                        -2.705923310560441E1  -1.337163886360056E2  -1.264826716218629E1   1.492232465503693E2  -2.037440406384521E1  -3.864528236686752E1  -2.188364443329590E1  -1.411704011328758E2  
                        -2.479698770028643E1  -1.777674397717651E2  -2.032484798958801E1  -3.969427755124374E1  -2.626063073686002E1  -2.109601188611889E1  -2.609856034555378E1  -1.509458747224148E2  
                        -2.136591827861210E1  -3.856565991904671E1  -2.184156611343456E1  -1.412744079231765E2  -2.621098244111361E1  -1.490255169238905E2  -1.172346303843184E1  -1.591357124646847E2  
                        
 3.377894894894895E10   -2.035083820281957E1  -2.497709775429410E1  -2.722892840274344E1   1.149220772694802E2  -2.559562623002946E1   5.116155948624448E1  -2.131743234799787E1  -1.487793912850636E2  
                        -2.723108134628818E1   1.172612336194970E2  -1.212297334421673E1   1.117957533021385E2  -2.032017236577998E1  -1.468554941725090E2  -2.139828912567883E1   1.716826465276341E2  
                        -2.569572483666490E1   5.320120556583281E1  -2.041259400386174E1  -1.481175796232230E2  -1.618719707539520E1  -5.518419464064284E1  -2.642153244700383E1   9.990545517354886E1  
                        -2.133081883463380E1  -1.462795770978998E2  -2.152981743869812E1   1.714653294914253E2  -2.630770667480389E1   1.018082728201942E2  -1.084859456165133E1   1.579380644270135E2  
                        
 3.384900900900901E10   -1.524589140109550E1  -1.206894343981647E2  -2.746782729138986E1   6.288837277266054  -2.760066807740729E1  -6.992753294391746E1  -2.108770156637617E1   1.027158219742312E2  
                        -2.743929383611554E1   9.081948437387306  -1.240585122318291E1   7.835779583050059E1  -2.043419271438654E1   1.044539558224501E2  -2.177023950229472E1   1.210048542784089E2  
                        -2.761301821466236E1  -6.869651959842204E1  -2.028408668258979E1   1.029759616782498E2  -1.597073750975766E1  -1.122400509236776E2  -2.668943412183829E1  -8.143505214949681  
                        -2.116810821283907E1   1.053975652331736E2  -2.177841520780327E1   1.204915647991343E2  -2.669088917723307E1  -7.742304177469847  -1.039570454442031E1   1.254416035414535E2  
                        
 3.391906906906907E10   -1.996155866118760E1   1.616572236025312E2  -2.729053986675969E1  -1.009170988864844E2  -2.885651377365854E1  -1.773589913864385E2  -2.084046222290730E1  -8.071736771313150  
                        -2.725725155656521E1  -9.781835480269923E1  -1.301536525830869E1   4.665608354323921E1  -2.026070740462852E1  -5.876293890498026  -2.271940289150578E1   7.498123901159131E1  
                        -2.900749956397937E1  -1.770201206209738E2  -2.023679756562169E1  -7.388766612635990  -4.260360845999474E1  -8.884341817815248E1  -2.654185356245401E1  -1.161815967171333E2  
                        -2.082517539225967E1  -5.461244124080348  -2.285402876768086E1   7.460884314070459E1  -2.648242982224086E1  -1.139428006671103E2  -1.161575219636806E1   9.808691574151018E1  
                        
 3.398912912912913E10   -2.691895919351108E1  -3.778568205092356E1  -2.685411909541002E1   1.470898849006277E2  -2.796355343972148E1   7.442814984647232E1  -2.110254393282092E1  -1.211783225861048E2  
                        -2.693614500986024E1   1.498033202323976E2  -1.367117743282571E1   1.362310011993336E1  -2.048101530640959E1  -1.169079120577043E2  -2.348726248590886E1   3.283240109637735E1  
                        -2.786210556119380E1   7.483099607871307E1  -2.045863725045966E1  -1.185725290775971E2  -1.592049306964166E1  -6.509733862304937E1  -2.641753375841718E1   1.344534443732013E2  
                        -2.116171133899235E1  -1.183725961739545E2  -2.351460161982353E1   3.372119368445190E1  -2.641718985827148E1   1.361114781787188E2  -1.215195782392200E1   6.628277771043452E1  
                        
 3.405918918918919E10   -1.589831572117931E1  -1.179801693924878E2  -2.708281508139634E1   3.390701123250749E1  -2.638283343917480E1  -4.783798990221405E1  -2.184941675978813E1   1.299147850168702E2  
                        -2.716342657102830E1   3.756581711062837E1  -1.472342362628835E1  -3.390956466482855E1  -2.083717253829754E1   1.371838548879293E2  -2.339962793908668E1  -5.489584508523344  
                        -2.634342840783167E1  -4.637028749699968E1  -2.078292746782298E1   1.333083080067948E2  -1.571727980600668E1  -1.172846277213130E2  -2.611208491838440E1   2.457305992987056E1  
                        -2.188640808182774E1   1.328170190499359E2  -2.338025257790479E1  -5.237742689616695  -2.649926479594370E1   2.717078186826132E1  -1.207471463017505E1   3.078199617648341E1  
                        
 3.412924924924925E10   -1.516562941665544E1   1.766621644162727E2  -2.780625778652559E1  -7.572052148214760E1  -2.571563255957619E1  -1.751155487579292E2  -2.231457335229372E1   2.365011371607083E1  
                        -2.762743619682188E1  -7.242110955332004E1  -1.415520942166587E1  -9.089239815798413E1  -2.094887816187926E1   2.532509566828451E1  -2.285096484156582E1  -5.062419612782576E1  
                        -2.560738211383175E1  -1.749744431324721E2  -2.087972091622908E1   2.497667116328434E1  -2.456707830515595E1  -1.426425022198650E2  -2.616269277393718E1  -8.741544389777597E1  
                        -2.215858982265127E1   2.610655146498919E1  -2.291281060611471E1  -5.090938115165925E1  -2.609029048209489E1  -8.606319934701384E1  -1.309864099432394E1  -1.969961936279910E1  
                        
 3.419930930930931E10   -2.519133645028288E1   2.833426337667904E1  -2.810451082606297E1   1.766504967133845E2  -2.611023958778436E1   5.434170434333078E1  -2.233339931258008E1  -8.283795631013128E1  
                        -2.801875813580800E1   1.784402587330338E2  -1.263973326364915E1  -1.493791652139884E2  -2.100674977818362E1  -8.234428273076088E1  -2.283858840415690E1  -9.842842621472560E1  
                        -2.607285223913226E1   5.367166621334153E1  -2.102971398295528E1  -8.437160978519987E1  -1.960480827168633E1  -6.505596352545399E1  -2.666795252823632E1   1.620955821694082E2  
                        -2.239342494277306E1  -8.027645846186263E1  -2.271104929153981E1  -9.869476359200085E1  -2.671762604248456E1   1.650625733002496E2  -1.234162593355447E1  -8.152714354020144E1  
                        
 3.426936936936937E10   -1.472556660874115E1  -1.176816240339076E2  -2.880320729330681E1   6.806048868328037E1  -2.758202055676691E1  -7.561313798067826E1  -2.229599187910459E1   1.707768300873577E2  
                        -2.869389483054331E1   7.103962594160389E1  -1.097563573757080E1   1.623278047828569E2  -2.115662812065264E1   1.702549487178205E2  -2.305898922410819E1  -1.458725358890314E2  
                        -2.787912259681506E1  -7.420752923787867E1  -2.122840973124352E1   1.684237301628752E2  -1.373483298008758E1  -1.145395146262004E2  -2.698632030461983E1   5.441765163340813E1  
                        -2.232921789698325E1   1.729920141467636E2  -2.313544739413153E1  -1.463068026426455E2  -2.684664678110304E1   5.509238122753891E1  -1.158344532581012E1  -1.359910169370885E2  
                        
 3.433942942942943E10   -1.381284022756777E1   1.632909520554501E2  -2.907750482161250E1  -3.498991737639442E1  -3.040334120450426E1   1.612780431612270E2  -2.200951137592655E1   6.446181376106564E1  
                        -2.901654965170148E1  -3.180912359788451E1  -9.948088967981519   1.216672599145862E2  -2.094918140953940E1   6.377220254992413E1  -2.402594850564867E1   1.683138796423188E2  
                        -3.034324635858054E1   1.632880103944848E2  -2.102421718502245E1   6.213875865807393E1  -1.798918148196211E1  -1.742264299156178E2  -2.731560328747519E1  -5.312468729001498E1  
                        -2.203934516986607E1   6.716532066698443E1  -2.400151967821836E1   1.691982937354473E2  -2.724935838105929E1  -5.122498118898365E1  -1.026414805476904E1   1.741743161677672E2  
                        
 3.440948948948949E10   -2.767432592468320E1   5.714092786813060E1  -2.836044445754176E1  -1.401305585329760E2  -3.353884865294037E1   5.776935671240585E1  -2.146510885313748E1  -4.551964908407679E1  
                        -2.833168683229434E1  -1.369559112447913E2  -1.003269954122793E1   8.513431971877223E1  -2.088373661959835E1  -4.589765273348716E1  -2.492834436443713E1   1.274059958540597E2  
                        -3.366337577264081E1   5.800895573477634E1  -2.072784992327587E1  -4.876960174981673E1  -2.142014830452170E1  -6.187590098624710E1  -2.715357344332102E1  -1.600547525186863E2  
                        -2.140871055077114E1  -4.397072761692322E1  -2.487142787427413E1   1.277547790149667E2  -2.704418888755682E1  -1.581916518985419E2  -9.771729435146440   1.401847385457461E2  
                        
 3.447954954954955E10   -1.673518076275115E1  -1.233213483516191E2  -2.769927510010988E1   1.093211291306234E2  -3.218762759523380E1  -3.678242100161674E1  -2.130838074579088E1  -1.581195770302394E2  
                        -2.772197327942136E1   1.122842799410454E2  -1.056675839017533E1   5.474924267854584E1  -2.087781698159963E1  -1.571164228652309E2  -2.513570430070011E1   9.132135701610751E1  
                        -3.237714370063548E1  -3.527800808339052E1  -2.086721088110418E1  -1.583362783204548E2  -1.280039252538785E1  -1.263256155180504E2  -2.678807509418038E1   9.206299283918295E1  
                        -2.155879553251670E1  -1.555317106704849E2  -2.521303831848711E1   9.187217008282522E1  -2.692074738810717E1   9.270426631426763E1  -1.062259011141103E1   1.102744428601277E2  
                        
 3.454960960960960E10   -1.374093797681078E1   1.722376532541710E2  -2.786842429572848E1  -3.776089621875755  -2.980737231806083E1  -1.594415973865599E2  -2.181934574349917E1   9.158369172652742E1  
                        -2.784375601790786E1  -2.677242768711152E-1  -1.120340118802711E1   2.609407899172483E1  -2.096382930783792E1   9.437837195395744E1  -2.391379560302788E1   5.043468803865359E1  
                        -2.973347186992040E1  -1.576163190631607E2  -2.101790203666674E1   9.237675061466152E1  -1.522007319537497E1   1.784993408717348E2  -2.667275957296597E1  -1.811539505110358E1  
                        -2.185571491864875E1   9.416083502810986E1  -2.391713698133265E1   5.088775604134062E1  -2.652942410151744E1  -1.513390360779711E1  -1.017931929580702E1   7.966861118216886E1  
                        
 3.461966966966967E10   -2.029064669778227E1   8.412895105439600E1  -2.801531218400681E1  -1.136198059254459E2  -2.941460899785707E1   6.587721954683924E1  -2.216152985599631E1  -1.745268298181474E1  
                        -2.803284842714502E1  -1.114345783395544E2  -1.169494012613696E1  -1.453202032764477E1  -2.105005208848356E1  -1.643716786118468E1  -2.336651127500060E1   1.664920636983261  
                        -2.942749059537199E1   6.699601681490456E1  -2.105971404022943E1  -1.823723974504220E1  -3.870719208059542E1  -5.388178032827710E1  -2.680864995184308E1  -1.299790249026960E2  
                        -2.220857178026021E1  -1.441572440824460E1  -2.334371435508389E1   1.842338335177071  -2.678352149388932E1  -1.285412069152800E2  -1.026116078429675E1   4.801908100065505E1  
                        
 3.468972972972973E10   -1.719745914545788E1  -1.082088400560637E2  -2.848348187396666E1   1.370296166455857E2  -3.112568327735477E1  -6.739794099763846E1  -2.236005399862884E1  -1.252564632486543E2  
                        -2.842697397164488E1   1.389637888906114E2  -1.203297877394256E1  -6.462103518194222E1  -2.138821808270928E1  -1.251922616088544E2  -2.346480775317981E1  -4.768649803982006E1  
                        -3.130985895707384E1  -6.775316808123435E1  -2.144341409998486E1  -1.269297811610039E2  -1.375625977188972E1  -1.206932138308064E2  -2.723493874080084E1   1.198533785694876E2  
                        -2.240625392536876E1  -1.226929130358748E2  -2.333013140359252E1  -4.692585991918396E1  -2.722421702857723E1   1.229510240463545E2  -1.153810863819399E1   5.171825554107095E-1  
                        
 3.475978978978979E10   -1.384774807091634E1   1.654370622710546E2  -2.914837834540181E1   3.097192703374317E1  -3.532639972542933E1   1.631651447442171E2  -2.255673562006346E1   1.287949929753279E2  
                        -2.914869466879056E1   3.332380442712760E1  -1.233342615341477E1  -1.236747820726475E2  -2.156435482656442E1   1.293180220104107E2  -2.428155528260000E1  -9.479091090926758E1  
                        -3.530339811752569E1   1.638024555012140E2  -2.166272479280930E1   1.263633001988516E2  -1.259761817557052E1   1.752142556179702E2  -2.776241626632478E1   1.400424509037558E1  
                        -2.255278240618758E1   1.309853523101276E2  -2.418776425989044E1  -9.518352685126168E1  -2.761797277282816E1   1.581258660773263E1  -1.196213054282148E1  -5.375464288240972E1  
                        
 3.482984984984985E10   -1.928897974689138E1   7.609628962128664E1  -2.895145255322909E1  -7.149456354667062E1  -4.397279165020469E1   5.017612111082504E1  -2.221908153417667E1   2.204785640616767E1  
                        -2.890262780278758E1  -6.925789743744957E1  -1.128153881042848E1  -1.799411641433610E2  -2.120450977904470E1   2.044640852991388E1  -2.511472180881989E1  -1.361573006868614E2  
                        -4.416832299841182E1   4.698805622952011E1  -2.139563370164403E1   1.901726228730257E1  -2.525230928546691E1   7.460092211807400E1  -2.750739814726191E1  -9.279470833672893E1  
                        -2.216356950732056E1   2.431764762241794E1  -2.508877091421888E1  -1.356299164580296E2  -2.756483405479975E1  -9.221228115923449E1  -1.279966942232061E1  -1.121117258159286E2  
                        
 3.489990990990990E10   -2.238962277426878E1  -9.698251653420833E1  -2.837121570558803E1  -1.786614707112878E2  -4.117817410095550E1   3.596601005138490E1  -2.180798624833717E1  -8.718255359123786E1  
                        -2.836606192144439E1  -1.751148228537942E2  -1.066436857717608E1   1.345888797619090E2  -2.128190409392374E1  -8.913059018971138E1  -2.542172898942745E1  -1.743582947405581E2  
                        -4.109324576657324E1   3.758181904030883E1  -2.136282615371255E1  -9.114694673132343E1  -1.502477412322950E1  -1.203501533258787E2  -2.748200671107784E1   1.593071413944842E2  
                        -2.187425815366946E1  -8.498303944896760E1  -2.543832411948126E1  -1.749867996883718E2  -2.760437352553112E1   1.611854051742130E2  -1.197961490521289E1  -1.675337879654843E2  
                        
 3.496996996996997E10   -1.694924096979254E1   1.727992611672684E2  -2.767513360220513E1   7.180599505990188E1  -3.452901786662076E1  -9.213164121092316E1  -2.170775889275418E1   1.623946750514846E2  
                        -2.759660694120324E1   7.463917244054596E1  -1.084102885122027E1   1.014546183693690E2  -2.128778620308383E1   1.628797360066452E2  -2.482236201057638E1   1.467895392772176E2  
                        -3.432328074694841E1  -9.151236561042609E1  -2.122269725845142E1   1.602088312294736E2  -1.271258729816713E1   1.702474759713210E2  -2.725299002744217E1   5.371713443185308E1  
                        -2.165118413463044E1   1.650782752194745E2  -2.480030814149436E1   1.462969172590940E2  -2.724576629790439E1   5.556211181173877E1  -1.197386863391209E1   1.539884892497438E2  
                        
 3.504003003003003E10   -1.764176903403078E1   9.796518029793201E1  -2.731237055360049E1  -4.088732229141022E1  -3.279589201154778E1   1.265214529112791E2  -2.150443375376660E1   5.162059852646128E1  
                        -2.737630243684930E1  -3.800935041273549E1  -1.070188436178084E1   7.337627797398240E1  -2.128196516969963E1   5.207175206064137E1  -2.382294921239161E1   9.957957535149747E1  
                        -3.253040381495105E1   1.284816349742591E2  -2.114715073150640E1   4.965405089812503E1  -2.164511919159607E1   1.031036140389670E2  -2.670267880405402E1  -5.727195289319293E1  
                        -2.156418321377523E1   5.441187355178948E1  -2.393274389686394E1   9.932408454879320E1  -2.665467037307796E1  -5.468491762036621E1  -1.192461510266314E1   1.189777112450738E2  
                        
 3.511009009009009E10   -2.335113109493432E1  -5.186639456266801E1  -2.743054861271683E1  -1.529611723636582E2  -3.456210705790365E1  -9.607815245838497  -2.159017296668924E1  -5.941246362729869E1  
                        -2.745466385709253E1  -1.502175939246044E2  -1.045102480886155E1   4.366357459168530E1  -2.143547773166269E1  -5.941521109885731E1  -2.372329675292312E1   5.162235813275389E1  
                        -3.486016073875450E1  -9.230664355078508  -2.146153566675705E1  -6.164752405788106E1  -1.728028224275128E1  -1.184307565153074E2  -2.688103809124956E1  -1.689549999961602E2  
                        -2.167797547101992E1  -5.757146739639781E1  -2.374119430694216E1   5.032677252607690E1  -2.695905506987333E1  -1.670471419540031E2  -1.094411311845354E1   9.075479985374646E1  
                        
 3.518015015015015E10   -1.783445547281314E1  -1.790972279237961E2  -2.779478232143154E1   9.753561536527965E1  -4.156144880901292E1  -1.127407680142848E2  -2.199680439674619E1  -1.701956684397593E2  
                        -2.784865306598210E1   1.010672249526729E2  -1.058992896908036E1   4.380904682412999  -2.184481442027325E1  -1.669277602782827E2  -2.418029858422642E1   2.406639543478163  
                        -4.184229357077847E1  -1.133287209959565E2  -2.188681234443751E1  -1.690616491993862E2  -1.240554805628816E1   1.679273642438104E2  -2.718871992875633E1   8.254312623098720E1  
                        -2.207755039017209E1  -1.669085522352059E2  -2.425482930201191E1   2.375978788030561  -2.711095970614471E1   8.527480439911986E1  -1.092856142561620E1   5.810769376494188E1  
                        
 3.525021021021021E10   -1.719717672997652E1   9.255201504273713E1  -2.813117153581518E1  -8.831451052615059  -3.820667735632513E1  -1.664327314666300E2  -2.222808131196855E1   8.233113772138159E1  
                        -2.816479590775459E1  -5.720921390869206  -1.152156119137461E1  -4.335017002449503E1  -2.198068341686820E1   8.673319584004499E1  -2.518727225852762E1  -3.876705641866541E1  
                        -3.828600599298224E1  -1.664492569270037E2  -2.190872244810938E1   8.466650689017324E1  -1.609070820587559E1   9.218748572455837E1  -2.715311240425651E1  -2.400852561039405E1  
                        -2.226385498355794E1   8.506490656112683E1  -2.526401043419639E1  -3.977866458322863E1  -2.711039369983504E1  -2.237686066835746E1  -1.141578407165407E1   1.517034166548573E1  
                        
 3.532027027027026E10   -2.207469542287324E1   1.231916289096646E1  -2.801388025296035E1  -1.155883148034022E2  -3.227313468198108E1   7.351188902334268E1  -2.228131096667800E1  -2.544747751185017E1  
                        -2.804116109071663E1  -1.126790813367522E2  -1.277221257294453E1  -1.012125263785294E2  -2.151329949301255E1  -2.130370016340542E1  -2.538000703931824E1  -7.771521843008614E1  
                        -3.234210529908566E1   7.466790830177139E1  -2.171805184518561E1  -2.428762583895733E1  -2.056160968443003E1  -1.059586740887531E2  -2.701499563824301E1  -1.337442054015435E2  
                        -2.224297159758334E1  -2.249105964683762E1  -2.537883767923662E1  -7.840303728685056E1  -2.681224409849962E1  -1.309921960038762E2  -1.271576857181205E1  -2.849670766618532E1  
                        
 3.539033033033033E10   -2.459949818810724E1  -1.435058601589655E2  -2.753669928147407E1   1.379972094633812E2  -2.943200004662442E1  -5.622399323284144E1  -2.223953019285084E1  -1.340148410635050E2  
                        -2.778774901619683E1   1.412851425047386E2  -1.288992102912605E1  -1.595222244613383E2  -2.163883582582789E1  -1.315789951391959E2  -2.463470783748439E1  -1.176975352807188E2  
                        -2.962290633186959E1  -5.479276404149149E1  -2.169465785558363E1  -1.319679211256759E2  -1.335323113522333E1   1.620886497899071E2  -2.718579298070637E1   1.181688879263217E2  
                        -2.226321110057018E1  -1.316021991039793E2  -2.453762426551327E1  -1.182533100645946E2  -2.699326913023745E1   1.185628496929070E2  -1.541756351429647E1  -8.916683103797399E1  
                        
 3.546039039039039E10   -1.677422623798223E1   1.081055432955410E2  -2.727436269250062E1   2.793430212035814E1  -2.806966364462986E1   1.738500598877327E2  -2.218912277827950E1   1.177187468389674E2  
                        -2.726097726853289E1   3.130261841834965E1  -1.297922880011147E1   1.535928180579619E2  -2.140620540454376E1   1.213003744499430E2  -2.370624890597439E1  -1.640333223902339E2  
                        -2.815587118366799E1   1.740115223020119E2  -2.153626116048692E1   1.188690506640399E2  -1.465736606405442E1   8.910559185093469E1  -2.694468230005319E1   1.022102117905047E1  
                        -2.222367832795808E1   1.207082016554136E2  -2.376263617297596E1  -1.646861612440972E2  -2.680147453463220E1   1.358985600217550E1  -1.586081150119801E1  -1.499128050565780E2  
                        
 3.553045045045045E10   -1.650361555286729E1   2.734773423200041E1  -2.697685200845228E1  -8.204342808312229E1  -2.799916078441055E1   4.341065643310537E1  -2.191649796302837E1   8.801738403272472  
                        -2.698700393399561E1  -7.917348907647067E1  -1.311917453717887E1   1.181919225244018E2  -2.109837866738744E1   1.113184424817580E1  -2.360158798928043E1   1.455573609078194E2  
                        -2.814126807891848E1   4.258627797562161E1  -2.115739951242252E1   7.958595368684298  -2.637673875369703E1  -4.115336402414274E1  -2.660176326839950E1  -9.834892702166158E1  
                        -2.193911527382680E1   1.138197277142529E1  -2.363684894331485E1   1.459575048691388E2  -2.664789507757727E1  -9.714755950501572E1  -1.673017476916201E1   1.576173864346391E2  
                        
 3.560051051051051E10   -2.253361997023994E1  -1.107603074406094E2  -2.667200344467794E1   1.668085042925613E2  -2.961960611058790E1  -8.251485732415793E1  -2.168658088032089E1  -1.025464591024372E2  
                        -2.662327628772707E1   1.694788801501311E2  -1.195357133459804E1   9.006628548740687E1  -2.154088777938089E1  -1.013857881176080E2  -2.415944797717394E1   9.769250589240440E1  
                        -2.959075456086302E1  -8.164278339559584E1  -2.147989969294574E1  -1.033141650777843E2  -1.584268522201016E1   1.684396264318521E2  -2.660331817064431E1   1.518803783100265E2  
                        -2.165335110763586E1  -9.958699876143818E1  -2.419013973779929E1   9.814949970023372E1  -2.660827821826801E1   1.551458308018468E2  -1.536409795373945E1   1.195859022206388E2  
                        
 3.567057057057056E10   -1.691387638585924E1   1.192588210332585E2  -2.686092570282428E1   5.488371924575176E1  -3.071544821056271E1   1.723774256941592E2  -2.190799096044828E1   1.458081491487583E2  
                        -2.685599202566280E1   5.684117064636409E1  -1.112568861000567E1   5.621414728670761E1  -2.181790932481182E1   1.510281539664071E2  -2.514642879164911E1   5.576886016937115E1  
                        -3.090007697061365E1   1.734563982559708E2  -2.186185617623990E1   1.485244928409204E2  -1.349297134933741E1   9.110666574560821E1  -2.636553165688522E1   4.263743002552939E1  
                        -2.195534427965190E1   1.474280452206889E2  -2.522278372493176E1   5.661187764108554E1  -2.634053824370981E1   4.468212332649908E1  -1.354155582458318E1   9.923190800398400E1  
                        
 3.574063063063063E10   -1.498988107326301E1   3.652343272962170E1  -2.733419474974856E1  -5.440311308945444E1  -2.878433924308877E1   6.467505715905587E1  -2.227271375371822E1   3.615249027381127E1  
                        -2.739670923085096E1  -5.330752317540723E1  -1.093904046095883E1   1.624702819179843E1  -2.201826900797815E1   4.148933238969674E1  -2.503750426710331E1   1.850384531397991E1  
                        -2.894142481995996E1   6.559406312176671E1  -2.190004150316439E1   4.041655325210401E1  -2.083940792134661E1   6.487445723877563  -2.616443465446285E1  -6.747190750951141E1  
                        -2.250885451289722E1   3.935692042570430E1  -2.512870574229232E1   1.833904366912854E1  -2.637678272595042E1  -6.512274825009946E1  -1.255584968354558E1   6.609623107409909E1  
                        
 3.581069069069069E10   -1.942377640925736E1  -5.840920505446486E1  -2.749354911000785E1  -1.632951315696215E2  -2.697057729766688E1  -5.631076392313832E1  -2.268359913854497E1  -7.328440064224517E1  
                        -2.746853774141827E1  -1.598150544459638E2  -1.189532633012422E1  -2.785501810350504E1  -2.190942605038876E1  -6.536681697487677E1  -2.445588005999326E1  -2.406346553984465E1  
                        -2.682397352015781E1  -5.599074605555109E1  -2.195079796680648E1  -6.793220975708871E1  -1.962422669684094E1   1.728890107121453E2  -2.635996987180872E1  -1.791454056429705E2  
                        -2.258040906768685E1  -6.908570911732419E1  -2.448147511660724E1  -2.316178887179568E1  -2.622948894484962E1  -1.747725837429069E2  -1.184513798455044E1   2.651354363215466E1  
                        
 3.588075075075075E10   -1.732610797711623E1   1.359843961291996E2  -2.753872819257662E1   8.919242348418956E1  -2.590307099993591E1   1.769583940671721E2  -2.280624067402762E1   1.799836093434475E2  
                        -2.753177466282905E1   9.177534357326158E1  -1.409115548660174E1  -7.850007084220384E1  -2.188374107380176E1  -1.738172513627295E2  -2.353847222382209E1  -6.893020224117183E1  
                        -2.589665703919252E1   1.769569135430768E2  -2.187433488378197E1  -1.757146804621246E2  -1.494922415742891E1   9.095746637848649E1  -2.645459884876383E1   7.169563607123514E1  
                        -2.292826204382822E1  -1.764958957876555E2  -2.347302684806264E1  -6.827347765922571E1  -2.652895174026094E1   7.471222597327127E1  -1.381529457302455E1  -1.219271411880137E1  
                        
 3.595081081081081E10   -1.355430738590947E1   4.123191040709445E1  -2.768155499364403E1  -1.819483804470472E1  -2.545367934654524E1   5.191286741667540E1  -2.274905876086944E1   7.396554215451286E1  
                        -2.770343346399172E1  -1.494696989257560E1  -1.619498401026885E1  -1.340184380262090E2  -2.171836984358728E1   7.827933896645730E1  -2.315394434255471E1  -1.188509226623767E2  
                        -2.562232579075445E1   5.249842197419244E1  -2.160836286952320E1   7.638663648243045E1  -1.723039278309917E1   2.579625053542592E1  -2.660365833206777E1  -3.549256343591540E1  
                        -2.280537770700396E1   7.687299433277480E1  -2.307364649605468E1  -1.191522223727786E2  -2.650748456403161E1  -3.365018889582744E1  -1.801271128837744E1  -6.740131835573664E1  
                        
 3.602087087087087E10   -1.609556747094294E1  -5.161281161683925E1  -2.719012920365026E1  -1.241971680792695E2  -2.565191567138206E1  -7.464430964990504E1  -2.253272578046965E1  -3.399539223851196E1  
                        -2.732138836017674E1  -1.209955692257598E2  -1.776918900813868E1   1.773372128051480E2  -2.135901780154016E1  -3.174305914369701E1  -2.368051660527993E1  -1.679149061023436E2  
                        -2.561886902650187E1  -7.271418557006896E1  -2.139290621014211E1  -3.532001897378015E1  -2.766593799976306E1  -1.486612743188619E2  -2.677201236802589E1  -1.443887172416237E2  
                        -2.247755255720754E1  -3.077107239716945E1  -2.364094048414381E1  -1.691323055939585E2  -2.671153100518589E1  -1.425130163268474E2  -2.302083684523656E1  -1.192607136754300E2  
                        
 3.609093093093093E10   -1.814949967912389E1   1.559543632339790E2  -2.668424496273558E1   1.251792026883466E2  -2.645481047325676E1   1.632621339245819E2  -2.219349972579630E1  -1.439084069612071E2  
                        -2.664078352546030E1   1.281752233719597E2  -1.731569255882462E1   1.432390724482979E2  -2.132644243366789E1  -1.427738328104919E2  -2.482880569073437E1   1.472627500949849E2  
                        -2.641427609293644E1   1.630822846182280E2  -2.145886737092201E1  -1.458868068729819E2  -1.645105600738316E1   9.946797925369187E1  -2.667329068543422E1   1.081929593740294E2  
                        -2.218763040349136E1  -1.423119924791369E2  -2.481154849279646E1   1.461517931526917E2  -2.655802206398385E1   1.110378864709486E2  -2.996568268173657E1   1.503209570535897E2  
                        
 3.616099099099099E10   -1.437440406695553E1   4.881744368243896E1  -2.660403211466261E1   1.338671538482763E1  -2.729286832658007E1   4.732499426109744E1  -2.225552371407707E1   1.057270662754918E2  
                        -2.666046856267714E1   1.600277215657248E1  -1.496356151801511E1   1.135679773287659E2  -2.155807845600311E1   1.067773625228874E2  -2.530846556406006E1   1.130265516207236E2  
                        -2.733417036214457E1   4.811581115864590E1  -2.155861072971653E1   1.041508433900041E2  -1.537448313822220E1   2.559944616095678E1  -2.637086497073675E1   9.159398876335566E-2  
                        -2.229069187095249E1   1.078896345412820E2  -2.532839463324529E1   1.120533299146788E2  -2.625984321050283E1   9.649484275337880E-1  -2.352781146194265E1   1.354717079140336E2  
                        
 3.623105105105105E10   -1.533737660082160E1  -4.530611210810694E1  -2.664560194189940E1  -9.804413036385613E1  -2.691423706771665E1  -6.508490805821253E1  -2.243764018049445E1  -4.725581344556165  
                        -2.667409273072630E1  -9.454709512986609E1  -1.279963651113308E1   7.627552393367203E1  -2.174511994056535E1  -2.773042456138308  -2.383174358585732E1   7.266365092048891E1  
                        -2.690917297019605E1  -6.453477062868723E1  -2.167016812345975E1  -5.415095991974356  -2.387524211120094E1  -6.658928571915467E1  -2.601605897586094E1  -1.107563422778053E2  
                        -2.230901665952812E1  -2.501151194727179  -2.390374382222963E1   7.192152256231748E1  -2.603040353468698E1  -1.088202615220851E2  -1.872533487963422E1   1.170744574800014E2  
                        
 3.630111111111111E10   -1.848611685766750E1  -1.722687864423219E2  -2.686992145297618E1   1.523687370836313E2  -2.576329753967864E1   1.750014534503831E2  -2.249672880547306E1  -1.136491357837164E2  
                        -2.687375125211950E1   1.548109404375377E2  -1.237224278917086E1   3.700796687214206E1  -2.199814435088453E1  -1.118075591076083E2  -2.297133837962511E1   2.468948565769475E1  
                        -2.583934444647523E1   1.759237504594756E2  -2.195234977312599E1  -1.143828396432756E2  -1.923038766614504E1   1.192426380828456E2  -2.606501360957749E1   1.372094081190336E2  
                        -2.256725338860252E1  -1.122586026832472E2  -2.295878637730163E1   2.455181721754883E1  -2.605463571293746E1   1.385706154317967E2  -1.505007965668995E1   6.918553471187461E1  
                        
 3.637117117117117E10   -1.617116988127840E1   5.992715601060365E1  -2.722582562215675E1   4.256089509347409E1  -2.548467827382946E1   5.159552898234732E1  -2.266029117744173E1   1.373362977395648E2  
                        -2.722431546858762E1   4.513372105105739E1  -1.377884584139326E1  -4.058123166714957  -2.221705617052357E1   1.408641533798708E2  -2.263021542216267E1  -2.672954818090514E1  
                        -2.552505197890886E1   5.202401264250944E1  -2.200554058044384E1   1.379065609726753E2  -1.480690203102197E1   3.361568641313609E1  -2.637649405671938E1   2.722549848226878E1  
                        -2.269092008620777E1   1.398035587375337E2  -2.249868803736760E1  -2.615571616279244E1  -2.655408619927577E1   2.918725046660341E1  -1.380111222157681E1   3.342809485993683E1  
                        
 3.644123123123123E10   -1.570832145799803E1  -4.380651890013339E1  -2.753346062804677E1  -6.331318837414161E1  -2.550530312662837E1  -7.099540942485817E1  -2.258911377635183E1   2.984128690690364E1  
                        -2.754611550440148E1  -6.013786187942876E1  -1.703710483051355E1  -4.741828001523405E1  -2.196032103018255E1   3.196941135836239E1  -2.303459625225076E1  -7.625098436044119E1  
                        -2.545110479223671E1  -7.087388558551780E1  -2.189335197510469E1   2.928308397728576E1  -1.736179151535620E1  -4.537138192057579E1  -2.669377027444690E1  -8.169093774784567E1  
                        -2.256768635779067E1   3.131899986533655E1  -2.295810873196151E1  -7.708296351037815E1  -2.654979443301463E1  -7.954254578880951E1  -1.619808212476789E1  -4.935148996900335E-1  
                        
 3.651129129129129E10   -1.755969397370157E1  -1.589515720756742E2  -2.734498788289512E1  -1.691424777372339E2  -2.555376255040918E1   1.649869368647717E2  -2.247696955901622E1  -7.901663690178059E1  
                        -2.737987930986636E1  -1.659660424163940E2  -2.193896975157832E1  -8.401167431678826E1  -2.174797489776863E1  -7.827590530604344E1  -2.383766390874325E1  -1.235868444313735E2  
                        -2.558560772735190E1   1.655112774947952E2  -2.170798522144072E1  -8.062146407824217E1  -2.362622074733562E1   1.548649252591208E2  -2.690712007555290E1   1.701166576782284E2  
                        -2.250879299770914E1  -7.733710890720100E1  -2.385246905045558E1  -1.241086295444699E2  -2.684929851216271E1   1.727854829229047E2  -1.969312477930566E1  -3.409543534424933E1  
                        
 3.658135135135135E10   -1.873630393660756E1   8.436463954244806E1  -2.684268440545929E1   8.260787644492575E1  -2.609982705053353E1   4.202621791291104E1  -2.235337255637037E1   1.707351711878704E2  
                        -2.693160442691810E1   8.564133335743217E1  -2.574796174562936E1  -1.039764302128885E2  -2.189234087239482E1   1.715843936654817E2  -2.498591682692229E1  -1.645365939478892E2  
                        -2.608441004457467E1   4.184115571797403E1  -2.180185916824190E1   1.689470493899731E2  -1.584582782248029E1   4.023496576157076E1  -2.696309213383756E1   6.266711366095361E1  
                        -2.232537197252186E1   1.730600652129690E2  -2.498612221513658E1  -1.646004770582931E2  -2.700103395043580E1   6.537085936387680E1  -2.178987136742400E1  -3.721215449059385E1  
                        
 3.665141141141141E10   -1.836242099363998E1  -4.457417687395022E1  -2.655995106421001E1  -2.734518340958542E1  -2.701866934699205E1  -7.726092299404439E1  -2.224778879504928E1   6.099514787896158E1  
                        -2.656278020107689E1  -2.481370264970702E1  -2.176865357266472E1  -1.482810361074243E2  -2.194655147171081E1   6.208735692482848E1  -2.492898781003386E1   1.615614629873997E2  
                        -2.703556626926021E1  -7.626822067407811E1  -2.191272141189738E1   5.936149096879716E1  -1.568333885470278E1  -3.885165210334002E1  -2.672577194645205E1  -4.434214179825555E1  
                        -2.229884001367219E1   6.282222416264240E1  -2.489271567561911E1   1.611134523351857E2  -2.676162427305619E1  -4.152221917265552E1  -2.314267951376424E1  -5.176573790580987E1  
                        
 3.672147147147147E10   -1.724853921995114E1  -1.520466971274776E2  -2.623868686641199E1  -1.375589544143775E2  -2.754284247366301E1   1.686888544953185E2  -2.234562136644725E1  -4.827800881187026E1  
                        -2.637981080639056E1  -1.343570328179037E2  -1.767002327547337E1   1.539293946584118E2  -2.192949415335297E1  -4.718790248771035E1  -2.352461667410734E1   1.209092621752420E2  
                        -2.749960351317571E1   1.676925892907280E2  -2.195173460344397E1  -5.035939083983133E1  -2.132494476127744E1  -1.634155868727317E2  -2.656757410952734E1  -1.523256948754352E2  
                        -2.233635218008125E1  -4.662922460692440E1  -2.343851743106378E1   1.206213761452786E2  -2.656832895321875E1  -1.508842530640564E2  -2.242793031098984E1  -1.226017474693187E2  
                        
 3.679153153153153E10   -1.893971198899680E1   1.142014755765206E2  -2.630000174944418E1   1.106942985474944E2  -2.728221474271647E1   5.122428167326118E1  -2.223261680753073E1  -1.576848470510624E2  
                        -2.618954064872113E1   1.140232267256137E2  -1.518374260459962E1   1.012923284099124E2  -2.225570012338568E1  -1.578186279424274E2  -2.240359296419315E1   7.126033548506338E1  
                        -2.730670504878964E1   5.115845820087285E1  -2.215945585091539E1  -1.598103900650464E2  -1.743865484698323E1   5.209734665543047E1  -2.641262074643774E1   9.710113851922675E1  
                        -2.228019924806895E1  -1.563833325979551E2  -2.243281792512046E1   7.060763990308186E1  -2.633379781731755E1   9.883298604184030E1  -2.166184266613226E1   1.756340201242117E2  
                        
 3.686159159159159E10   -2.350611773397736E1  -3.963385435203054E1  -2.649746783705048E1   1.187936261067565  -2.709809279341084E1  -6.910635480504034E1  -2.226520880782261E1   9.194199062893804E1  
                        -2.648700254203917E1   3.251052822887186  -1.429505679934348E1   5.454489993084703E1  -2.246186142946323E1   9.449951152901120E1  -2.212788514859398E1   1.856470564176289E1  
                        -2.708160661450039E1  -6.966681106625855E1  -2.238245812643686E1   9.150961303062560E1  -1.497814300501742E1  -4.134285962104081E1  -2.653459991464256E1  -1.324722251929412E1  
                        -2.227498500293330E1   9.412287953635970E1  -2.226492889549113E1   1.865379993935251E1  -2.663582569620243E1  -9.983959762535145  -1.976247520722889E1   1.069336029208170E2  
                        
 3.693165165165165E10   -1.760998027123348E1  -1.445259174072245E2  -2.675128698058294E1  -1.078771798219847E2  -2.711018714251003E1   1.691720438501283E2  -2.233212067933063E1  -1.810025086603851E1  
                        -2.673881004727828E1  -1.045016448205634E2  -1.524323141901743E1   1.663479749075203E1  -2.217394704721183E1  -1.316069572485274E1  -2.278654194523520E1  -3.143002846146003E1  
                        -2.707182887492040E1   1.684885482191400E2  -2.217546374027465E1  -1.674449889343736E1  -1.909764151415992E1  -1.416042790378714E2  -2.649713139527214E1  -1.214695439020348E2  
                        -2.238385128117023E1  -1.606257313676229E1  -2.266633272492888E1  -3.179179358761856E1  -2.653999499142538E1  -1.193311345840467E2  -1.798068964986172E1   6.544673427845044E1  
                        
 3.700171171171171E10   -1.775677783023353E1   1.355517642205393E2  -2.687843562940304E1   1.449675645137490E2  -2.738451148928138E1   4.487881402968350E1  -2.232634396743178E1  -1.273446917043380E2  
                        -2.677868090334481E1   1.480574742927122E2  -1.715228865936793E1  -8.588086593158515  -2.212896822153491E1  -1.249943791537337E2  -2.376907327811945E1  -7.742272807487649E1  
                        -2.756849340188674E1   4.461433883350942E1  -2.214024622846666E1  -1.269095831994627E2  -1.910406980684527E1   7.396685555629880E1  -2.676403166339458E1   1.288509178789152E2  
                        -2.240701687226581E1  -1.253309843505741E2  -2.376702802620186E1  -7.821077243526371E1  -2.676307527670320E1   1.311391362371914E2  -1.946128302230100E1   3.572301768006516E1  
                        
 3.707177177177177E10   -2.666072401263116E1   4.021560237426910E1  -2.669617370503918E1   3.807205146169240E1  -2.864550392536095E1  -7.849207520320623E1  -2.239942086086910E1   1.227505154479335E2  
                        -2.667340408121992E1   4.006913594751187E1  -1.770791907327283E1  -2.098446546022828E1  -2.252894579212493E1   1.257607212764536E2  -2.476926635492459E1  -1.188287555002748E2  
                        -2.821810463087123E1  -7.753529926176529E1  -2.230996327888077E1   1.232811804085711E2  -1.684962283109066E1  -2.990450463686701E1  -2.668895440543295E1   2.128588635565201E1  
                        -2.232807331111094E1   1.250685873124478E2  -2.472290653757304E1  -1.189062955039670E2  -2.684588645519657E1   2.277242629125904E1  -1.909628225428456E1   6.116669895046528  
                        
 3.714183183183183E10   -2.049209574534596E1  -1.327526091502760E2  -2.627294332233563E1  -7.069336185708829E1  -2.973791588445660E1   1.634737441394233E2  -2.239708158631656E1   1.261869659308381E1  
                        -2.647367388124751E1  -6.806533044473541E1  -1.660737501571581E1  -4.412038855899537E1  -2.255120355506805E1   1.706368603198388E1  -2.499764151839769E1  -1.558305506467107E2  
                        -2.963131811323986E1   1.617840176176872E2  -2.245176200750862E1   1.404868164262209E1  -1.847361406018884E1  -1.320528894768739E2  -2.684501886238329E1  -8.652499024885019E1  
                        -2.247050230736980E1   1.406471533135231E1  -2.496532588775493E1  -1.558369075467418E2  -2.698831493059582E1  -8.420712503178790E1  -1.783082072713808E1  -7.454735437060065  
                        
 3.721189189189189E10   -1.800813585802007E1   1.556486509541662E2  -2.600781254399749E1   1.798751925834958E2  -3.091797126506380E1   4.760397205595854E1  -2.256099459703279E1  -9.734453154764285E1  
                        -2.602516157561478E1  -1.768332979543170E2  -1.666781885790017E1  -8.824582226532030E1  -2.258338427779404E1  -9.225111764535500E1  -2.410050964405687E1   1.655204856398441E2  
                        -3.103078777898326E1   4.815374317842388E1  -2.250307291247447E1  -9.484955900914676E1  -1.934671247641229E1   9.758561712101084E1  -2.676066032176204E1   1.653389177079860E2  
                        -2.258608626806521E1  -9.481253459038021E1  -2.413603834490359E1   1.650067573579950E2  -2.663889784369752E1   1.674132986702657E2  -1.886311179901384E1  -3.967869815450581E1  
                        
 3.728195195195195E10   -2.240403533930532E1   8.440101798520607E1  -2.566406214120279E1   6.940693000877337E1  -3.168964435653365E1  -6.250385870352006E1  -2.267240499698210E1   1.540299279681322E2  
                        -2.567117158427696E1   7.271686025778369E1  -1.792620650492764E1  -1.460090376786156E2  -2.278766084734495E1   1.593679339257345E2  -2.315451858661644E1   1.208576472104813E2  
                        -3.160141916158263E1  -6.233792078349834E1  -2.261135021412556E1   1.555382067472532E2  -1.917616034304417E1  -1.964663820447063E1  -2.659592864719884E1   5.747896104280088E1  
                        -2.256106527929739E1   1.557499259932057E2  -2.316384558783361E1   1.203051263899958E2  -2.674148410546563E1   6.019495501328412E1  -1.800281902252655E1  -8.769882683066980E1  
                        
 3.735201201201201E10   -2.863185066622140E1  -1.000569730107221E2  -2.576033202712830E1  -4.109527976949618E1  -3.116643030301902E1  -1.762043250159649E2  -2.257483324939918E1   4.407861031123155E1  
                        -2.557485651636572E1  -3.790976337821999E1  -1.894819797107570E1   1.466597317486023E2  -2.275991896280373E1   4.950587404575502E1  -2.230801293198655E1   7.166212223878178E1  
                        -3.097212257953381E1  -1.777619103126698E2  -2.267373260397676E1   4.697960541616124E1  -1.940975446419585E1  -1.251884311748614E2  -2.620961277666601E1  -5.054279215346503E1  
                        -2.257950467680334E1   4.641099075363266E1  -2.233137587204250E1   7.064142092519063E1  -2.636884262389505E1  -4.813022383224453E1  -1.887959766115259E1  -1.252040809006136E2  
                        
 3.742207207207207E10   -1.928240156229105E1   1.745953134456086E2  -2.570908752277097E1  -1.513456484641461E2  -3.081033313059761E1   6.338820232047446E1  -2.267671876511514E1  -6.579971808816831E1  
                        -2.573060160160338E1  -1.481824241247541E2  -1.859167736139007E1   9.135211869826939E1  -2.251363090837275E1  -5.935078674190274E1  -2.227641509269512E1   2.054032275295716E1  
                        -3.110526507050929E1   6.193666556204668E1  -2.255798200779329E1  -6.216825655803645E1  -2.065287842849400E1   1.254695967793446E2  -2.618279548514888E1  -1.604662420143057E2  
                        -2.270028662289515E1  -6.241721324363681E1  -2.220202303293609E1   2.104726267531474E1  -2.612937609258684E1  -1.581782637740475E2  -2.105070108942842E1   1.710459208777747E2  
                        
 3.749213213213213E10   -2.028491809283511E1   9.703042980833035E1  -2.569318572632927E1   9.890790620746634E1  -3.142069645862217E1  -5.916695959370099E1  -2.272421443133904E1  -1.740840861222606E2  
                        -2.563281715272579E1   1.015548317868959E2  -1.898010787068461E1   5.349908444009313E1  -2.269473246936741E1  -1.689878623880628E2  -2.278587547193948E1  -2.866442545206731E1  
                        -3.148636743160266E1  -5.838464644886977E1  -2.256689957769781E1  -1.731447846143368E2  -2.090671579644691E1   1.347220566080833E1  -2.600461747057751E1   9.012347541605617E1  
                        -2.269102538248915E1  -1.724248628772126E2  -2.269958906550118E1  -2.952614831387816E1  -2.585669506039931E1   9.330632203949558E1  -2.058131254523037E1   1.288278665506100E2  
                        
 3.756219219219219E10   -2.758898416090965E1  -2.391118988107627E1  -2.568898229779574E1  -1.023311990520052E1  -3.264871089092576E1   1.798027538726056E2  -2.261375176723966E1   7.584099622170528E1  
                        -2.576296882456676E1  -7.584180261817554  -1.865745013311226E1   3.261037706353784E1  -2.279392359819359E1   8.045042994520121E1  -2.367007699453624E1  -7.483885615536070E1  
                        -3.249373597462262E1  -1.793924074525179E2  -2.271385496224580E1   7.723615118077719E1  -2.062739410106237E1  -1.017982350679250E2  -2.586037372222857E1  -1.982638839341189E1  
                        -2.264666922566180E1   7.789749304080131E1  -2.366983984202560E1  -7.556864632238883E1  -2.588114441879450E1  -1.808180300501651E1  -2.373888195193489E1   8.734197258511621E1  
                        
 3.763225225225225E10   -2.115322068060798E1  -1.783153375652915E2  -2.572878274530201E1  -1.201912404838226E2  -3.427790490205349E1   6.485750369729161E1  -2.266461514435267E1  -3.572953490617325E1  
                        -2.578143722773418E1  -1.172525517128280E2  -1.698688266549632E1   1.359151390168919E1  -2.287027277977877E1  -2.980395513844037E1  -2.458181221607041E1  -1.159080839558487E2  
                        -3.435649071394381E1   6.472926145311841E1  -2.286991224965030E1  -3.255304590532299E1  -2.005018179188858E1   1.514417267796273E2  -2.581003852533313E1  -1.297665308772101E2  
                        -2.269336828458338E1  -3.258998831028325E1  -2.457977758281872E1  -1.165650996956361E2  -2.590520365355748E1  -1.269682240259392E2  -2.114871607874810E1   4.351975705807980E1  
                        
 3.770231231231231E10   -1.922504078395387E1   1.013591600082910E2  -2.573469506580902E1   1.310825357542980E2  -3.579569731359069E1  -4.087621909522464E1  -2.283382525690338E1  -1.456148844222246E2  
                        -2.570554190250524E1   1.339204434187139E2  -1.568630348681336E1  -1.702207117956865E1  -2.309743161614285E1  -1.402647448620917E2  -2.466225498062552E1  -1.528947667122801E2  
                        -3.599664073658204E1  -4.076639848031875E1  -2.307418494736330E1  -1.422917937291491E2  -2.197612842297573E1   4.922556783010634E1  -2.587398853905398E1   1.210713811856956E2  
                        -2.280657443206522E1  -1.431362265345215E2  -2.478547132683942E1  -1.534211804905219E2  -2.577852316753558E1   1.231276026027287E2  -1.930834309355013E1   2.988891118220040E1  
                        
 3.777237237237237E10   -2.162120667787225E1   1.671878055522564E1  -2.541373885589310E1   2.164400789535937E1  -3.521177171297504E1  -1.444190155376586E2  -2.286832549056246E1   1.042488229254585E2  
                        -2.554158213241957E1   2.524949610862334E1  -1.523769971806696E1  -5.599400446214032E1  -2.328152608317705E1   1.108955936115657E2  -2.377772413000088E1   1.682693896436809E2  
                        -3.499988959812995E1  -1.428635242800672E2  -2.326132214073480E1   1.087954204013685E2  -2.665559851987173E1  -7.620199711203294E1  -2.595924544043812E1   1.218951080413313E1  
                        -2.293349562034495E1   1.068648561466956E2  -2.372994029628612E1   1.678623201739987E2  -2.594968229125911E1   1.379426019824718E1  -1.892758760216226E1  -8.738964171454169  
                        
 3.784243243243243E10   -2.796489197935864E1  -1.373789726613451E2  -2.544920924329020E1  -8.790277940241712E1  -3.371960457202917E1   1.024209341737369E2  -2.316231791427529E1  -5.283952505355997  
                        -2.539583956400196E1  -8.495086421846828E1  -1.635786202855919E1  -9.664348750118957E1  -2.356079951940517E1   3.184332725885565  -2.273537029446786E1   1.231527124534248E2  
                        -3.352200913046447E1   1.031533664754516E2  -2.347412549356619E1   3.362914613233265E-1  -2.159359590490319E1   1.729523486579527E2  -2.594633190528936E1  -9.675562061217578E1  
                        -2.311253887040051E1  -2.901490472908509  -2.258180412837157E1   1.228461288352047E2  -2.577499891579484E1  -9.373946550848388E1  -1.709842344240482E1  -4.617787444369671E1  
                        
 3.791249249249249E10   -1.908969075616932E1   1.029818210456952E2  -2.543540875609789E1   1.618246373642210E2  -3.292388754243147E1  -1.675332261887468E1  -2.341648483331739E1  -1.151401630993240E2  
                        -2.544038960854223E1   1.655751469847839E2  -1.866032329987555E1  -1.398802359674515E2  -2.362046221415412E1  -1.047007770642787E2  -2.180687014223015E1   7.374308303162343E1  
                        -3.301075207482972E1  -1.797099516869015E1  -2.360982294887096E1  -1.077466457174023E2  -2.079066848239695E1   8.499608549983417E1  -2.575255076745243E1   1.550998486372549E2  
                        -2.332699583996607E1  -1.120837222590017E2  -2.169400669893744E1   7.382657658428730E1  -2.571881320108304E1   1.582875134693443E2  -1.922213034110830E1  -7.577673655491982E1  
                        
 3.798255255255255E10   -1.838498467471081E1   2.574362859477981E1  -2.529493091257033E1   5.217175876122929E1  -3.279092593870404E1  -1.378896530468748E2  -2.350868965642957E1   1.368239342687161E2  
                        -2.533282377548296E1   5.485399201344936E1  -2.201099164770778E1   1.783591328300190E2  -2.364882441619388E1   1.468624530135178E2  -2.155571228637657E1   2.186606148161608E1  
                        -3.297759242900008E1  -1.388116840473902E2  -2.363362168043899E1   1.427727107814228E2  -2.284716690743755E1  -2.782078470316710E1  -2.565331107539492E1   4.640052386560623E1  
                        -2.351278185744384E1   1.391844422451357E2  -2.145934091905213E1   2.063931775154432E1  -2.556371644454414E1   4.888344460163177E1  -2.251877434805665E1  -1.249965574004118E2  
                        
 3.805261261261261E10   -2.846675732391694E1  -6.531281773056467E1  -2.511088963231494E1  -5.810886111518200E1  -3.305542533777511E1   1.018117987084923E2  -2.345482993446789E1   2.698678722138381E1  
                        -2.520971631595981E1  -5.451838787977961E1  -2.568204776415206E1   1.366393621039078E2  -2.362926530687739E1   3.778057381147042E1  -2.205132266853949E1  -2.932477086920853E1  
                        -3.317286391763577E1   9.989852333435431E1  -2.349373739973177E1   3.440401953433317E1  -2.164606170216246E1  -1.641648798655410E2  -2.542547865936960E1  -6.421040137689064E1  
                        -2.346305109891635E1   3.097287466984325E1  -2.192441296669858E1  -2.966350943542442E1  -2.538780732350206E1  -6.132878309687349E1  -2.204946338762082E1  -1.452202442750164E2  
                        
 3.812267267267267E10   -2.261412974935587E1   1.028347003013624E2  -2.523453094148139E1  -1.685483675498085E2  -3.409121188156023E1  -1.743021469539050E1  -2.350698621789643E1  -8.265062369210178E1  
                        -2.530278958005994E1  -1.653988307797498E2  -2.631706841462033E1   1.039138450356095E2  -2.353505119624430E1  -7.219111153949397E1  -2.302969596099731E1  -7.744019831322640E1  
                        -3.385079104234237E1  -1.950182890199756E1  -2.347997682496866E1  -7.598686117620512E1  -1.932112012646927E1   9.918356818321297E1  -2.542707536916212E1  -1.737658144107895E2  
                        -2.345573440843059E1  -7.931349851549585E1  -2.289295073369135E1  -7.752751004663435E1  -2.531882028529006E1  -1.708428771593162E2  -2.650161409473954E1  -1.523724609206912E2  
                        
 3.819273273273273E10   -1.747121218016680E1   4.262620599481115E1  -2.519453205040773E1   8.134437514167918E1  -3.522598685044518E1  -1.323506104696606E2  -2.347282882275137E1   1.681415395603680E2  
                        -2.536764788170932E1   8.535672914733210E1  -2.224451940821812E1   6.384379390002869E1  -2.357948272771544E1   1.770262000826283E2  -2.393540645529501E1  -1.187823024418868E2  
                        -3.524286144086469E1  -1.337726141820610E2  -2.352463244509599E1   1.738475881403726E2  -2.276497958192487E1  -2.328930494430987  -2.514477526569773E1   7.578243294315672E1  
                        -2.342935095039773E1   1.711742966991447E2  -2.396134170259465E1  -1.188286714475034E2  -2.522878728660578E1   7.884702709338140E1  -2.441123228373296E1   1.442212627045106E2  
                        
 3.826279279279279E10   -2.026424436970803E1  -1.680061791591766E1  -2.522504756037970E1  -2.823142609630179E1  -3.556295135513945E1   1.179245675983062E2  -2.343430678385067E1   5.778800599271823E1  
                        -2.531762374394538E1  -2.450643853747005E1  -1.873501703601348E1   2.595136475681377E1  -2.373493247660404E1   6.648708323189331E1  -2.404874209051748E1  -1.574126738392864E2  
                        -3.575108928106703E1   1.185060367352948E2  -2.366413545538266E1   6.318746066844135E1  -2.443195754889684E1  -1.350815391711288E2  -2.516381746108682E1  -3.494765275494639E1  
                        -2.345737980764692E1   6.070344360882800E1  -2.394992674751615E1  -1.579978722048710E2  -2.530879662341349E1  -3.248720126797575E1  -2.040754315161734E1   1.149593325176993E2  
                        
 3.833285285285285E10   -2.752141172851066E1   1.226700101774380E2  -2.520385621610141E1  -1.388597572549944E2  -3.512269031206422E1   9.055688465268485  -2.361036054174649E1  -5.319022954383929E1  
                        -2.524893083367717E1  -1.357687401171353E2  -1.646944635147003E1  -1.205320662843857E1  -2.398433366724589E1  -4.356463090832297E1  -2.340503398027758E1   1.623685412681444E2  
                        -3.515319481398635E1   8.944943985019147  -2.404223586606038E1  -4.666977872799048E1  -1.955798438339390E1   1.237017710160742E2  -2.520735988290364E1  -1.443481673731085E2  
                        -2.356082312217617E1  -5.014653998987649E1  -2.335438316150634E1   1.612332472934681E2  -2.523252453174615E1  -1.418848295981781E2  -2.096505226335684E1   6.569264176401677E1  
                        
 3.840291291291291E10   -1.710975673684714E1   5.147433232408239E1  -2.531474133034246E1   1.107760204389528E2  -3.402410713319716E1  -1.065477136145720E2  -2.373159975286036E1  -1.632005864350714E2  
                        -2.534066669027453E1   1.145593369007422E2  -1.642457961487229E1  -4.661330705477185E1  -2.443936816457498E1  -1.526365927874772E2  -2.246524459345422E1   1.154226126770784E2  
                        -3.407523390152061E1  -1.083485699498681E2  -2.433402006544569E1  -1.557690868358350E2  -2.218792599323717E1   3.305448221769375E1  -2.525492478369747E1   1.050946340027647E2  
                        -2.389909596367142E1  -1.610426275329053E2  -2.251193896639201E1   1.145803308610173E2  -2.530319248754760E1   1.092964891951622E2  -1.756183053439315E1   2.113312074260464E1  
                        
 3.847297297297297E10   -1.852297717686016E1  -4.520581269501554  -2.536399571828437E1   1.423477724240130  -3.337172355890727E1   1.320954759740068E2  -2.410203258183210E1   8.704711865495435E1  
                        -2.545439820557977E1   4.378521040414628  -1.724757923591479E1  -7.436902389642549E1  -2.465225931682303E1   9.909340142648671E1  -2.218817632607011E1   6.646852958599001E1  
                        -3.341309293303814E1   1.313601961348704E2  -2.465018474671565E1   9.512043462509229E1  -2.521224322487305E1  -1.103047008599115E2  -2.539214815947492E1  -4.050626683497017  
                        -2.411558978921521E1   8.981409688998791E1  -2.214444937425505E1   6.700037501350248E1  -2.535127913788517E1  -4.110061098644997E-1  -1.738674800160402E1  -2.266504478070859  
                        
 3.854303303303303E10   -3.924121206622719E1  -5.097501849781263E1  -2.561816578540917E1  -1.097490915904153E2  -3.356040126863400E1   5.306254858337760  -2.437481785476714E1  -2.254627873968916E1  
                        -2.554568354730669E1  -1.054785866897343E2  -1.794212252603705E1  -9.831780995087684E1  -2.504686812663765E1  -8.878081722901797  -2.200098842879401E1   1.640343871729865E1  
                        -3.350903293432798E1   6.760421244915228  -2.489479728507881E1  -1.261245238984797E1  -2.063082592195543E1   1.289314900593979E2  -2.545766741817146E1  -1.127079381958387E2  
                        -2.434963503192491E1  -1.937206257684613E1  -2.192709471353636E1   1.612149376993572E1  -2.549794435053951E1  -1.102662081172036E2  -1.806309547809356E1  -3.994337529214251E1  
                        
 3.861309309309309E10   -1.956173689726504E1   7.488227878409008E1  -2.589730360665077E1   1.408397653892633E2  -3.493848939061824E1  -1.218473809418873E2  -2.456975475639151E1  -1.314268926307435E2  
                        -2.573997106550718E1   1.449261416168853E2  -1.774889172268510E1  -1.205980451226140E2  -2.507817826956006E1  -1.166322974349953E2  -2.242389963250623E1  -3.339411304375179E1  
                        -3.504164369603593E1  -1.209628355961624E2  -2.501730966276951E1  -1.209362645296159E2  -2.087081906874062E1   5.569215774337400E1  -2.557907470170592E1   1.367189538419757E2  
                        -2.466601839868023E1  -1.284074890276353E2  -2.239748830816350E1  -3.392052603322820E1  -2.554906462601816E1   1.403987000681923E2  -1.585203888878159E1  -6.325774296119360E1  
                        
 3.868315315315315E10   -1.653723128941898E1   1.412341728566988E1  -2.605698988992883E1   3.284177357018464E1  -3.933110719922804E1   1.229988559536966E2  -2.489484100860125E1   1.202966449363993E2  
                        -2.604208922444273E1   3.638740189722609E1  -1.664953990997622E1  -1.507420073488472E2  -2.507494771114160E1   1.348469013692747E2  -2.317774085169994E1  -8.234171016732562E1  
                        -3.944817325692995E1   1.189672637623249E2  -2.504734003526239E1   1.315691926689853E2  -2.565293062512814E1  -4.989071829890220E1  -2.570035011745060E1   2.811350219748261E1  
                        -2.475582432270284E1   1.229837333539233E2  -2.307875074960777E1  -8.236258449613057E1  -2.561747855623827E1   3.037143329203605E1  -1.572081602768363E1  -8.787337047984462E1  
                        
 3.875321321321321E10   -2.549940265469515E1  -6.813899149131208E1  -2.588391663752733E1  -7.520249885041484E1  -4.291037415366183E1   4.673880952794168E1  -2.482723130687173E1   1.195347391162968E1  
                        -2.589534436161695E1  -7.143692554207324E1  -1.597935274000252E1   1.661589734226239E2  -2.502469716385385E1   2.593708731020900E1  -2.423344957944206E1  -1.275856237884055E2  
                        -4.264319927860664E1   4.625354591602534E1  -2.489239224032588E1   2.282766765948140E1  -2.418095634634759E1   1.752445495850760E2  -2.558843242053415E1  -8.095563225646249E1  
                        -2.483665376337934E1   1.583051640977126E1  -2.419898221606369E1  -1.281153724656243E2  -2.557787155913430E1  -7.749404883837802E1  -1.477282284548485E1  -1.349938617176362E2  
                        
 3.882327327327327E10   -1.907964630011469E1   8.835411967492009E1  -2.578064975828480E1   1.755751337797652E2  -3.702513595568092E1  -4.232639439463735E1  -2.480344641764997E1  -9.712738574099433E1  
                        -2.573867949872204E1   1.781736585863591E2  -1.550469538695454E1   1.163809699205392E2  -2.490033300623580E1  -8.332033173049372E1  -2.506963848038550E1  -1.670456713223068E2  
                        -3.694610371414422E1  -4.113677428701400E1  -2.488362944947548E1  -8.666104270197292E1  -1.950653114247731E1   8.450756504172792E1  -2.560301117676897E1   1.700592049480185E2  
                        -2.477828379394273E1  -9.492339137378852E1  -2.503014494199174E1  -1.682409100653132E2  -2.558254896485105E1   1.729474185789084E2  -1.325221143555244E1  -1.720399329880886E2  
                        
 3.889333333333333E10   -1.675104611692893E1   3.098246699025475E1  -2.578609523717421E1   6.483074260846425E1  -3.299406934184676E1  -1.641818807852502E2  -2.489523613202301E1   1.539021762578688E2  
                        -2.573190856634204E1   6.799534421320732E1  -1.509223257332614E1   6.344707505211294E1  -2.479619313904416E1   1.671124808043066E2  -2.525635461928214E1   1.543804538589632E2  
                        -3.287397870968775E1  -1.661489345247346E2  -2.495128859711311E1   1.629251924198154E2  -2.266285555244360E1   2.818991535734999  -2.553684400195730E1   6.094092106931513E1  
                        -2.482212759395584E1   1.571620887022722E2  -2.533796003279763E1   1.531577063202103E2  -2.555086138200432E1   6.367010092288918E1  -1.393849397099564E1   1.400128970081846E2  
                        
 3.896339339339339E10   -2.152753209863472E1  -1.999960281397754E1  -2.559479357221117E1  -4.665562972099268E1  -3.131710901460869E1   6.296819991920059E1  -2.470956307015853E1   4.418635878997845E1  
                        -2.571073771084564E1  -4.210568530237215E1  -1.419650096158466E1   1.733255817672692E1  -2.506513248411941E1   5.591819291477289E1  -2.430107817658090E1   1.141345323513936E2  
                        -3.138711325023840E1   6.187224482782028E1  -2.505388975684183E1   5.174494584984505E1  -2.566008875286155E1  -1.569412032094729E2  -2.538697448598379E1  -4.984293650602210E1  
                        -2.472275522005787E1   4.662606411730533E1  -2.426515973657315E1   1.127562926051146E2  -2.538155735000730E1  -4.715889776072133E1  -1.268742299252684E1   8.937986328529881E1  
                        
 3.903345345345345E10   -2.825672697879792E1   1.194747132561402E2  -2.582491217600808E1  -1.589306786592180E2  -3.198359440765029E1  -7.015629340290120E1  -2.474996564011787E1  -6.731815053135885E1  
                        -2.585254463889132E1  -1.553489444127982E2  -1.388297552485182E1  -1.982429141093002E1  -2.541039876150898E1  -5.488519538523568E1  -2.348440731849225E1   6.573047770342571E1  
                        -3.190816519582527E1  -7.218711226720633E1  -2.546781825205292E1  -5.955219846055071E1  -1.905518602371040E1   9.453858223185384E1  -2.550248009215955E1  -1.614060053540651E2  
                        -2.483449863893938E1  -6.462489568733089E1  -2.350361509465586E1   6.414083679605400E1  -2.564162501820900E1  -1.580677645845557E2  -1.315973993785038E1   5.337023987031859E1  
                        
 3.910351351351351E10   -1.648597690467627E1   4.605534692707764E1  -2.641134767020149E1   9.003390185016625E1  -3.493738135641876E1   1.681556351690910E2  -2.509748305028671E1  -1.789154590127327E2  
                        -2.643767582426610E1   9.373474753416811E1  -1.313081380167567E1  -5.171928701362266E1  -2.607571995737931E1  -1.634451195497269E2  -2.325879304740960E1   1.398982040591114E1  
                        -3.482456308634632E1   1.672348788059284E2  -2.602903930743603E1  -1.678422534571755E2  -1.884096687527081E1   1.768947634922081E1  -2.571079922736478E1   8.844239063132106E1  
                        -2.516005414154202E1  -1.762668503196510E2  -2.340245730754648E1   1.357496708832769E1  -2.579294291321304E1   9.269711590927568E1  -1.320611392453495E1   8.037821663336340  
                        
 3.917357357357357E10   -1.811725115143235E1  -2.897075139060292E1  -2.704149827877539E1  -1.857736970974524E1  -3.651800601414157E1   8.006826423330006E1  -2.554286585396729E1   7.101553377930715E1  
                        -2.700341504303842E1  -1.519465019779745E1  -1.183747530715777E1  -8.415517659576786E1  -2.654808940031951E1   8.913923933524312E1  -2.389568896767079E1  -3.833970640852114E1  
                        -3.656590223738406E1   7.790841733139732E1  -2.661418418442535E1   8.509190744379313E1  -2.203793171109527E1  -9.386470073284841E1  -2.607219268759600E1  -2.154406272225534E1  
                        -2.556310923684420E1   7.358086514471854E1  -2.402145869229683E1  -3.851678177961038E1  -2.601095357104749E1  -1.704989097387373E1  -1.153692879939599E1  -2.348169360920835E1  
                        
 3.924363363363363E10   -2.750988117013380E1  -1.711923896450735E2  -2.751696441724521E1  -1.256121402724926E2  -3.250514031600432E1  -2.111802417652119E1  -2.608478451044554E1  -3.902650593142928E1  
                        -2.750978375303170E1  -1.217391133841670E2  -1.082591395475516E1  -1.195773479810406E2  -2.692473478105393E1  -1.783082024747842E1  -2.522213919429664E1  -8.597292398957134E1  
                        -3.259252344106075E1  -2.255734880691840E1  -2.707010922214568E1  -2.178016199335950E1  -1.978751594585568E1   1.297130601478831E2  -2.651488373050045E1  -1.305633847518445E2  
                        -2.615293082984737E1  -3.506023229034567E1  -2.527249761667004E1  -8.556482673844137E1  -2.648550208981438E1  -1.256686607903011E2  -1.137696578832880E1  -5.836947005187552E1  
                        
 3.931369369369369E10   -1.882951147300000E1   6.438072113919957E1  -2.786852345946512E1   1.290460244964338E2  -2.939531458953699E1  -1.454286490133679E2  -2.682711346885661E1  -1.466037604147654E2  
                        -2.779139079585591E1   1.330503974658521E2  -1.055604032676029E1  -1.610277524433455E2  -2.734582099225987E1  -1.225708140770106E2  -2.674809029116510E1  -1.300238188182866E2  
                        -2.934157737048716E1  -1.452992897222308E2  -2.725855829788436E1  -1.272689721622708E2  -1.639365097447686E1   3.421430360380726E1  -2.699644077953042E1   1.227239840608102E2  
                        -2.678766392179958E1  -1.435597352118615E2  -2.689582558231720E1  -1.292202649346867E2  -2.687522922751481E1   1.271438837321100E2  -1.024405348902449E1  -1.044654310339875E2  
                        
 3.938375375375375E10   -1.735753703271495E1  -7.623027467006673  -2.766424518934122E1   2.310628431713043E1  -2.745175449108620E1   8.586511307400068E1  -2.717213439632403E1   1.094613465564152E2  
                        -2.760244097166932E1   2.574800126693259E1  -1.038681624221822E1   1.541123077685270E2  -2.704454453734877E1   1.315640719859126E2  -2.782623669252182E1  -1.638496732723935E2  
                        -2.744222059510646E1   8.531132245385776E1  -2.704597119195275E1   1.284533484084762E2  -1.940281117886017E1  -6.997595811146753E1  -2.698288431986699E1   1.677859021411071E1  
                        -2.709657301421956E1   1.128709393925548E2  -2.773274937680084E1  -1.646105446247069E2  -2.697477120048762E1   2.036377742574392E1  -9.278284362998482  -1.419096666130279E2  
                        
 3.945381381381381E10   -2.031360971544149E1  -1.213760769822755E2  -2.729736466331146E1  -8.423377650723725E1  -2.670313716448881E1  -4.716668154792494E1  -2.692783721689571E1   4.737302936392013  
                        -2.733703540653650E1  -8.111303801698038E1  -1.052421355300590E1   1.061561432553855E2  -2.656112061756670E1   2.453194192300997E1  -2.722600544561554E1   1.606683369596507E2  
                        -2.668620626033517E1  -4.759194860481605E1  -2.649289334715291E1   2.048635177522664E1  -2.002032101547210E1   1.474839556542744E2  -2.660129245545550E1  -9.058011139839638E1  
                        -2.700139505421529E1   7.726545178329618  -2.733647476302484E1   1.604187068779141E2  -2.666480167674013E1  -8.633641128642219E1  -9.799165684125365   1.723288192396701E2  
                        
 3.952387387387387E10   -1.709056580914656E1   1.084912518846185E2  -2.712105413586779E1   1.663553366897628E2  -2.755725139068250E1  -1.783705750306709E2  -2.665268117625328E1  -1.025669856955670E2  
                        -2.693661371552984E1   1.704023147344416E2  -1.107114373252005E1   6.056396738542357E1  -2.631882756075799E1  -8.630626524243621E1  -2.622606663360370E1   1.194795281710823E2  
                        -2.743309937673256E1  -1.790712145992615E2  -2.625206352997332E1  -8.875044737648075E1  -1.537566342966574E1   3.710452093968574E1  -2.645966678366712E1   1.610919863904099E2  
                        -2.655578713897492E1  -1.003071234897033E2  -2.616517163332631E1   1.189932929432333E2  -2.645268483039188E1   1.637940095350137E2  -9.446012228307065   1.285486699583524E2  
                        
 3.959393393393393E10   -1.534431357115239E1   5.091564516028238E-1  -2.691761291523002E1   5.529366328682912E1  -2.938624575085138E1   5.667465681942866E1  -2.595050511281317E1   1.481832357499943E2  
                        -2.688766331993072E1   5.823794103437950E1  -1.147602711010114E1   1.904471055463692E1  -2.616143133504664E1   1.642861060470585E2  -2.535998462208157E1   6.850543281038294E1  
                        -2.939189325050941E1   5.594552946045025E1  -2.593687373342511E1   1.602744890885849E2  -1.635547140150276E1  -4.511515334799443E1  -2.594480861559535E1   5.261188069689614E1  
                        -2.593983277661830E1   1.509897463946176E2  -2.555645217885813E1   6.834420161650075E1  -2.626120045099414E1   5.621854678414729E1  -1.058901983844556E1   8.830486337389277E1  
                        
 3.966399399399399E10   -1.809073465397580E1  -1.008781044219258E2  -2.698815023147235E1  -5.644510792821596E1  -3.134294430854489E1  -5.020816245421146E1  -2.546366477278354E1   3.487330111099485E1  
                        -2.700573549818684E1  -5.302745274462858E1  -1.136449846445006E1  -1.942289085946137E1  -2.633301853553034E1   5.104478848757232E1  -2.588833682654672E1   1.869771228514154E1  
                        -3.125243532244178E1  -5.057654462046909E1  -2.613276310353253E1   4.683872188533000E1  -2.105583730285922E1  -1.614125030578594E2  -2.574790895270908E1  -5.982255212013295E1  
                        -2.566999168763828E1   3.675071917661428E1  -2.615959904524005E1   1.908629319919230E1  -2.609047720669910E1  -5.685658429333130E1  -1.115100331900097E1   4.558466101135523E1  
                        
 3.973405405405405E10   -1.895157550426773E1   1.199777610589270E2  -2.743695958984491E1  -1.688042322549632E2  -2.993514758425440E1  -1.541449688700404E2  -2.598140790541856E1  -8.057510069559034E1  
                        -2.755118224335887E1  -1.639086919121178E2  -1.036221585965582E1  -5.720154886554531E1  -2.706916267951440E1  -6.004307406346643E1  -2.693781856525497E1  -2.703631450325631E1  
                        -2.999347822176179E1  -1.549655989253674E2  -2.699234159743521E1  -6.329315352348739E1  -1.684167855789657E1   4.481665896934976E1  -2.617955873721487E1  -1.721377780265283E2  
                        -2.615299562601840E1  -7.687006339036353E1  -2.693754977680960E1  -2.612344504977085E1  -2.651244267680798E1  -1.685963732290078E2  -1.047658943588257E1   1.320944754543661E1  
                        
 3.980411411411411E10   -1.517068222163865E1   1.034659040440519E1  -2.833843510782883E1   8.350565811470612E1  -2.796383208584261E1   8.408358283049928E1  -2.718162866185013E1   1.693485077914997E2  
                        -2.836754848722753E1   8.715271817123509E1  -9.616064247691110  -9.880252022871017E1  -2.775700974687150E1  -1.645452421627145E2  -2.779226512244633E1  -6.804537648959325E1  
                        -2.779865884989878E1   8.316663699549629E1  -2.770485874908277E1  -1.678063523017529E2  -1.392504380805269E1  -3.630394262360129E1  -2.665226085849222E1   7.783741261553531E1  
                        -2.717490176571227E1   1.726314666450160E2  -2.774053339799341E1  -6.749590669494747E1  -2.680965578645706E1   8.161061617618778E1  -9.978965909309855  -2.925608168037541E1  
                        
 3.987417417417417E10   -1.477260305182064E1  -8.393068613441902E1  -2.883135667798101E1  -2.138748862033555E1  -2.641408319123888E1  -4.271920357849152E1  -2.797249047526144E1   6.585867488355859E1  
                        -2.878906069333868E1  -1.806009005188117E1  -8.913987322990202  -1.398043456011742E2  -2.775195658802380E1   9.349839384866496E1  -2.794399451433270E1  -1.079583094700178E2  
                        -2.652703078387172E1  -4.432921286868237E1  -2.782195933164005E1   8.764634450515337E1  -1.841413231898387E1  -1.284779348555315E2  -2.717173066945261E1  -2.996255321371495E1  
                        -2.815315308132044E1   6.790926785224572E1  -2.788937075605307E1  -1.071983264822763E2  -2.722932293504338E1  -2.426618259705757E1  -8.650780051794957  -7.438992465383065E1  
                        
 3.994423423423423E10   -1.753503158234108E1   1.520051740960330E2  -2.897418265872939E1  -1.257488657322953E2  -2.642388972842640E1  -1.772732836144797E2  -2.832763890058316E1  -3.890050354300684E1  
                        -2.886500501749717E1  -1.224728194653332E2  -8.681129029369341   1.769426805886476E2  -2.768182019711566E1  -1.536776841126831E1  -2.803317246518646E1  -1.471427404155643E2  
                        -2.641338277386036E1  -1.773929871161293E2  -2.764891378009680E1  -1.814044055324598E1  -1.938149796201348E1   4.927493765325616E1  -2.754812212592407E1  -1.366009205002723E2  
                        -2.834084402621141E1  -3.568604383100697E1  -2.795307088403246E1  -1.475274226672339E2  -2.727729616998617E1  -1.327928051111683E2  -8.490435251402762  -1.123447247879577E2  
                        
 4.001429429429429E10   -1.477017943009843E1   1.337820398463104E1  -2.883661123549365E1   1.296319069106961E2  -2.708436035693421E1   5.516974584050009E1  -2.832253334238460E1  -1.420990980864262E2  
                        -2.876992594452075E1   1.331212317795267E2  -9.391511311403333   1.346683790924541E2  -2.734477169059347E1  -1.189447692159888E2  -2.749553255100394E1   1.711916798978413E2  
                        -2.748025519571064E1   5.423731855835430E1  -2.727150375931906E1  -1.221098902126430E2  -1.318346177084720E1  -2.914701486165058E1  -2.770158778615684E1   1.188925731299297E2  
                        -2.805335671331019E1  -1.381778205495183E2  -2.744988314312216E1   1.701028306624102E2  -2.760134718532869E1   1.232270705913290E2  -9.011936814319093  -1.582492825674637E2  
                        
 4.008435435435435E10   -1.255603727013872E1  -7.984098084759611E1  -2.848597123460323E1   2.611389131717153E1  -2.875911609594620E1  -7.149887295449537E1  -2.745262781301414E1   1.150907245830822E2  
                        -2.820263370567907E1   2.894827706544330E1  -1.029878119129860E1   9.192982625632351E1  -2.655184167082412E1   1.331881496366827E2  -2.733571912043430E1   1.249361149098328E2  
                        -2.867328100459780E1  -7.160531273219149E1  -2.646318013194874E1   1.298596933320816E2  -1.531167744859944E1  -9.585473345323302E1  -2.724984999129113E1   1.485973469925146E1  
                        -2.742598156919694E1   1.186411236287336E2  -2.727858083936086E1   1.246067714246560E2  -2.739124302330165E1   1.556247806906019E1  -9.385924745560267   1.622370975591169E2  
                        
 4.015441441441441E10   -1.759825903691137E1  -1.749090278221290E2  -2.750916999317258E1  -8.262433831801215E1  -3.111447148495210E1   1.636971680428530E2  -2.634674334405843E1   5.390646752411480  
                        -2.755974164529476E1  -7.842289348727472E1  -1.156438975521289E1   5.099119403012893E1  -2.573112569165373E1   2.072401813368177E1  -2.778836574278113E1   8.180795706028928E1  
                        -3.092201591434907E1   1.651546991373249E2  -2.583131535015772E1   1.779262229332133E1  -2.709388079565404E1   1.113400283781132E2  -2.664432657230151E1  -9.369424253784872E1  
                        -2.618300979869331E1   8.196959051851206  -2.765192881176124E1   8.100492989583229E1  -2.682484862880719E1  -9.073662500802480E1  -1.134358649217784E1   1.229932962283322E2  
                        
 4.022447447447447E10   -1.758863827973365E1   1.405659312746259E1  -2.673660309291839E1   1.634810731688849E2  -3.346843819659495E1   5.857148761638926E1  -2.572445697495902E1  -1.094641180076906E2  
                        -2.696066966927558E1   1.677263125007210E2  -1.200239180013336E1   1.301525345628562E1  -2.597194359376691E1  -9.438763837819631E1  -2.821522897319620E1   4.082416712866957E1  
                        -3.366641076701213E1   6.237083676927689E1  -2.598650771496331E1  -9.694516795929704E1  -1.390038688830169E1  -2.489901313724049E1  -2.631088213077910E1   1.537861075258871E2  
                        -2.561333574098481E1  -1.059616092422760E2  -2.818338648657447E1   4.093066146230649E1  -2.627257102009491E1   1.582138256027308E2  -1.228635360975009E1   8.343993115365666E1  
                        
 4.029453453453453E10   -1.200799096651983E1  -7.177140270314877E1  -2.698102550921072E1   5.224298790073083E1  -3.190467080349750E1  -4.326519004308725E1  -2.582193143743163E1   1.382724852968718E2  
                        -2.707796825588722E1   5.547897090686035E1  -1.148841933887068E1  -2.498521420049362E1  -2.637029640478531E1   1.581531182809638E2  -2.723746789120497E1   3.514455082357503  
                        -3.217959190888264E1  -4.283932680598531E1  -2.615769544310098E1   1.546084533594248E2  -1.251743392432262E1  -8.777874695566669E1  -2.600507639291157E1   4.446953238458620E1  
                        -2.600818919790676E1   1.401414248399546E2  -2.707347821635839E1   3.265156629315145  -2.604127807778086E1   4.629772391706636E1  -1.151605203302012E1   5.291069156852625E1  
                        
 4.036459459459459E10   -1.435968709689668E1  -1.483639302337381E2  -2.748639455396736E1  -5.834220402914441E1  -3.045520126428527E1  -1.680995387254562E2  -2.612213968995814E1   2.646368945927078E1  
                        -2.734277656464584E1  -5.609779147541815E1  -1.040798340556404E1  -6.646624453382195E1  -2.647132777734639E1   4.781041469495756E1  -2.615649656430406E1  -4.642924739979467E1  
                        -3.029986938787258E1  -1.683672543639947E2  -2.638386430845260E1   4.422751618426600E1  -2.150226462574579E1  -1.667719293370708E2  -2.589535354245089E1  -6.918008429639401E1  
                        -2.611369598929168E1   2.821704482517272E1  -2.625887678672035E1  -4.597859115090261E1  -2.592744152294238E1  -6.657018223854023E1  -1.142208328724797E1   8.707761303504386  
                        
 4.043465465465465E10   -2.154450380538370E1   3.712630236888258E1  -2.783435272670049E1  -1.680402157871721E2  -3.028739220389080E1   5.675095206804443E1  -2.645171271848793E1  -8.410424126802164E1  
                        -2.794727854291141E1  -1.643148048895558E2  -1.032493364386039E1  -1.109947018623894E2  -2.672453317863471E1  -6.152099157507631E1  -2.626066712217605E1  -9.554843496311614E1  
                        -3.048077997194553E1   5.634259559758603E1  -2.675192662542285E1  -6.537226359962691E1  -1.648201739743181E1  -1.948921648466237E1  -2.642159969411933E1   1.788897181637870E2  
                        -2.679842067375626E1  -7.983338451684553E1  -2.623546309807174E1  -9.426345066878317E1  -2.693545340979168E1  -1.771186747072674E2  -9.954662935252237  -3.859080308081816E1  
                        
 4.050471471471471E10   -1.278617029625574E1  -7.042611272424723E1  -2.827250824121015E1   8.672966592102706E1  -3.269279550590419E1  -7.732453161779729E1  -2.707872058851151E1   1.694991127046107E2  
                        -2.832856009706764E1   9.137688291631991E1  -1.029950543899718E1  -1.539665046990654E2  -2.714348354318835E1  -1.672671457868105E2  -2.707054443155790E1  -1.425090878861458E2  
                        -3.244043765695911E1  -7.442125667665695E1  -2.702254688669713E1  -1.709710011076292E2  -1.196128835166285E1  -8.358914902278671E1  -2.724898438657586E1   7.171335378713590E1  
                        -2.706447288443744E1   1.728418623102643E2  -2.698726983974556E1  -1.425531486725202E2  -2.724601081319748E1   7.577380109274922E1  -1.062600500941109E1  -7.919116821954903E1  
                        
 4.057477477477477E10   -1.356964430261060E1  -1.393858964059229E2  -2.812599499045552E1  -1.594202839757470E1  -3.523797375112630E1   1.555780479961704E2  -2.700668681507408E1   6.412003970799734E1  
                        -2.813254130155923E1  -1.131966664384949E1  -1.113061671069935E1   1.645645298393854E2  -2.666891770196694E1   8.712756296096728E1  -2.785237778002691E1   1.768576157210411E2  
                        -3.528208610093712E1   1.565815317902932E2  -2.684412531965851E1   8.251350083446621E1  -1.585826186478088E1  -1.481796145684054E2  -2.737283903005671E1  -3.348417870188926E1  
                        -2.692676736225062E1   6.689709076094469E1  -2.777658041369601E1   1.758905728163580E2  -2.726729989774584E1  -2.914171137652907E1  -1.155530537792776E1  -1.255625085048776E2  
                        
 4.064483483483483E10   -2.593625169276792E1   1.181429648867025E2  -2.733407986807609E1  -1.215900519979533E2  -4.106943885028742E1   2.542968137934826E1  -2.643122378125448E1  -4.437066032277770E1  
                        -2.745261678293877E1  -1.179722982039632E2  -1.251494669286105E1   1.265730424706897E2  -2.642812619284805E1  -2.235925735558229E1  -2.794787536882697E1   1.373053617854060E2  
                        -4.109421434787964E1   2.481104819783536E1  -2.658436016328686E1  -2.708143244265142E1  -2.064308200312715E1   5.774599521761655  -2.719266054015922E1  -1.421126980214594E2  
                        -2.641504263503058E1  -4.287255365420296E1  -2.799467327897160E1   1.362563883402517E2  -2.713041635226655E1  -1.385939955942709E2  -1.247452135006585E1  -1.593015807762945E2  
                        
 4.071489489489489E10   -1.563165123884954E1  -5.890493736419666E1  -2.692350135907148E1   1.300373448796237E2  -5.670932702340701E1  -5.804838037404297  -2.604797781738402E1  -1.545055360765841E2  
                        -2.672105434332920E1   1.336498320749285E2  -1.426887475467496E1   9.477979880429828E1  -2.648917274630095E1  -1.324737233418143E2  -2.773584499362366E1   9.942051919921063E1  
                        -5.638730606888427E1  -5.261793127277510E1  -2.650524706781119E1  -1.358281722369155E2  -1.111947348546267E1  -7.958210297782510E1  -2.723330763118437E1   1.129762645831071E2  
                        -2.610523317204244E1  -1.513150871850660E2  -2.766550534545613E1   9.882659488222950E1  -2.711748634546123E1   1.145080968231510E2  -1.524999380180478E1   1.729317315664199E2  
                        
 4.078495495495495E10   -1.319708300108964E1  -1.212306525510984E2  -2.626776546364062E1   1.893084028703634E1  -4.369599821972750E1  -8.237466916917306E1  -2.598076084066935E1   9.510768442738703E1  
                        -2.620327392379513E1   2.274976263686005E1  -1.503148825791065E1   6.573205262469857E1  -2.628104854289229E1   1.185869594921238E2  -2.652894816366325E1   5.713753928446439E1  
                        -4.372324308117263E1  -8.471453086807283E1  -2.625955015220828E1   1.158568799130951E2  -1.217081359362832E1  -1.439071483354765E2  -2.677418027167533E1   7.386484066898717  
                        -2.603979707867789E1   9.778185663373138E1  -2.658611992615795E1   5.643676986896599E1  -2.682636572381216E1   9.780549440529754  -1.564185188248858E1   1.410416079034444E2  
                        
 4.085501501501502E10   -1.963470617115072E1   1.625997512598388E2  -2.568315916155676E1  -9.200049539284134E1  -3.914162635178485E1   1.467287260654853E2  -2.563700644134458E1  -1.502286603233691E1  
                        -2.571454241731998E1  -8.939519595856983E1  -1.445823343384791E1   2.921762601145951E1  -2.587177461184118E1   6.792655307913941  -2.594657843438742E1   9.859017059185588  
                        -3.929545187778895E1   1.453085312671780E2  -2.592852014762569E1   4.696011104306590  -2.498189374456070E1   6.925853022110398E1  -2.601094080207685E1  -1.032248353103686E2  
                        -2.565800292894634E1  -1.264275858873673E1  -2.587422009812519E1   8.616859654330321  -2.584627863378760E1  -1.011566737500433E2  -1.421509317217531E1   1.154841837744372E2  
                        
 4.092507507507507E10   -2.003104905859037E1  -3.321896630750612E1  -2.560654132983977E1   1.550467494392924E2  -3.891712176071802E1   2.182454509396294E1  -2.557350974147957E1  -1.281482269798794E2  
                        -2.576734231428994E1   1.571823540745647E2  -1.358040491288243E1  -1.687139451845840E1  -2.627497653352652E1  -1.045620336923812E2  -2.547458884731203E1  -4.002877656024545E1  
                        -3.880159420170629E1   2.134987791408413E1  -2.629114325274889E1  -1.063518359822211E2  -1.255904097088429E1  -7.666847770508977E1  -2.598885788404644E1   1.440190327281407E2  
                        -2.551829051352912E1  -1.265575116034688E2  -2.555872464909923E1  -4.104857590605913E1  -2.612378594490552E1   1.466598540281314E2  -1.442554431180676E1   7.014399488150217E1  
                        
 4.099513513513513E10   -1.407477666093289E1  -1.170967929351416E2  -2.597362080530289E1   4.385260233600255E1  -4.044714487380532E1  -8.803052646907693E1  -2.583868737601591E1   1.209124711886512E2  
                        -2.600685492994667E1   4.684340580950916E1  -1.370505615564208E1  -6.750409217488861E1  -2.663258360134537E1   1.485368323627302E2  -2.611691863466595E1  -8.911161203082983E1  
                        -3.983141844538816E1  -9.024336183274815E1  -2.645970297853269E1   1.441580943621987E2  -1.114869229728160E1  -1.435413458253087E2  -2.597612888631535E1   3.483651328254945E1  
                        -2.579926630045975E1   1.229163471699160E2  -2.619910033922097E1  -8.940043330628728E1  -2.614709276493414E1   3.750300121823380E1  -1.294701258022551E1   1.874008649290255E1  
                        
 4.106519519519519E10   -1.490455723630010E1   1.705428630290394E2  -2.613400717312182E1  -6.507605296759954E1  -3.898896165304795E1   1.753198791840232E2  -2.602992493852228E1   1.008042597164220E1  
                        -2.617696468860926E1  -6.227569369461873E1  -1.389417265537409E1  -1.154549253680503E2  -2.657826094849214E1   3.861918750335726E1  -2.665052827566119E1  -1.305624390852408E2  
                        -3.869272824975350E1   1.721466194861079E2  -2.645675476729461E1   3.484493008495888E1  -1.897312166711996E1   1.287424864353970E2  -2.576834819532780E1  -7.549214746985047E1  
                        -2.594958299753096E1   1.326177900807838E1  -2.682731433617478E1  -1.318981914839032E2  -2.589781565702154E1  -7.208394421941162E1  -1.424795844750184E1  -2.403439140631464E1  
                        
 4.113525525525525E10   -2.393785288279541E1   5.009396081484440E1  -2.597999110883755E1  -1.735738108014693E2  -3.670010269087908E1   6.499148554435014E1  -2.608866885321495E1  -1.013806832821704E2  
                        -2.615785968169167E1  -1.700927884540307E2  -1.467889591783546E1  -1.498981323318398E2  -2.696085927713711E1  -7.213323407420290E1  -2.674327010400896E1  -1.742979113065018E2  
                        -3.650195682607095E1   6.598486310686909E1  -2.669411635478794E1  -7.517260892185030E1  -1.518680488218965E1  -6.005234192114151E1  -2.619485822296566E1   1.716480247276892E2  
                        -2.609354474294921E1  -9.820823781105089E1  -2.675897502852015E1  -1.741400129195930E2  -2.618133777694847E1   1.747345962002626E2  -1.578544224837105E1  -7.273608031174977E1  
                        
 4.120531531531532E10   -1.679620573830730E1  -1.099942025124340E2  -2.602800294561432E1   7.644541272638959E1  -3.401263098977769E1  -5.074949518958805E1  -2.646076047460996E1   1.484137319407049E2  
                        -2.621466110325601E1   8.030145637368339E1  -1.539962143538407E1  -1.738269060940364E2  -2.730544403549020E1   1.791891834209978E2  -2.675035798902522E1   1.421010997135211E2  
                        -3.401947858138239E1  -5.304904221489988E1  -2.696487342713804E1   1.765032662997774E2  -1.137153809399714E1  -1.393598958861865E2  -2.668269419488524E1   6.263531057325743E1  
                        -2.655596552530765E1   1.506640107132808E2  -2.666582124726598E1   1.417460315414688E2  -2.666529464483846E1   6.711104482462783E1  -1.569670882804990E1  -9.183288575229412E1  
                        
 4.127537537537537E10   -1.341120906541948E1   1.657575510868348E2  -2.628346444445923E1  -3.079967845466074E1  -3.200870557570909E1  -1.710166651084950E2  -2.692293143220315E1   4.059718700241250E1  
                        -2.617208000490146E1  -2.786922221719892E1  -1.502495197719184E1   1.664768134090603E2  -2.708738772378014E1   7.392043212585706E1  -2.678812353399763E1   9.696798432320196E1  
                        -3.209851983353078E1  -1.707990909718801E2  -2.710389238275923E1   7.002326273537669E1  -1.536778811730634E1   1.405876627014052E2  -2.682712714904249E1  -4.268919974103645E1  
                        -2.685656079574902E1   4.288630747207031E1  -2.682661045721686E1   9.742470959940117E1  -2.678312678914177E1  -4.029458594147747E1  -1.586481650271947E1  -1.105585425279545E2  
                        
 4.134543543543543E10   -1.609619703934672E1   7.230650205891882E1  -2.592786491101132E1  -1.390899968268689E2  -3.038067041202578E1   6.288844265361188E1  -2.711380390519934E1  -6.922047938970566E1  
                        -2.578221811040211E1  -1.359430525014692E2  -1.387144318474531E1   1.360392349079920E2  -2.692431993550841E1  -3.549702675059169E1  -2.731241831089510E1   5.722985621762299E1  
                        -3.034758239108046E1   6.310778009744098E1  -2.702194700181860E1  -3.889895706250614E1  -1.893216380344384E1  -3.712027534936098E1  -2.672605575981014E1  -1.516224890656854E2  
                        -2.690692657662137E1  -6.560693061132928E1  -2.718760038903782E1   5.681188947464766E1  -2.660171237100838E1  -1.482794775548653E2  -1.351044269473729E1  -1.548710575628123E2  
                        
 4.141549549549549E10   -1.853594716408642E1  -6.593853254612067E1  -2.560294302721168E1   1.111395583979525E2  -2.980178712418573E1  -6.384511689700034E1  -2.724971839099099E1  -1.762195298544156E2  
                        -2.562853933318915E1   1.141812707078280E2  -1.388739610072032E1   9.088593065819698E1  -2.698995763173933E1  -1.442249343130119E2  -2.692224033172591E1   1.850669830798896E1  
                        -2.972781638241840E1  -6.397635162431609E1  -2.696205274858724E1  -1.477645260247785E2  -1.305900943389251E1  -1.361407394753344E2  -2.679880824251597E1   1.021978404987604E2  
                        -2.721234945930136E1  -1.741986048787907E2  -2.658903735210004E1   1.690306022543527E1  -2.678824931815409E1   1.049008085507251E2  -1.169936169807361E1   1.685146218255811E2  
                        
 4.148555555555555E10   -1.440414629686840E1   1.705841090526066E2  -2.555844587715808E1   1.714271521901576  -2.963169254402506E1   1.723429589674312E2  -2.722240548845306E1   7.665228212235310E1  
                        -2.537983019566416E1   4.476051251977987  -1.452372826731891E1   4.226391737706647E1  -2.669892321750551E1   1.101615601352852E2  -2.580036198697593E1  -2.453816099858477E1  
                        -2.954860019013455E1   1.704067197056292E2  -2.679178140519679E1   1.045635257012680E2  -1.509988164216595E1   1.500463907623814E2  -2.646422973674960E1  -2.903208059466581  
                        -2.708175778397505E1   7.794663797617289E1  -2.581924308323822E1  -2.614950578723191E1  -2.635934597660584E1   1.086751501692912  -1.221503492645585E1   1.214377522817711E2  
                        
 4.155561561561562E10   -1.396011429707838E1   8.205808542822062E1  -2.522898684414695E1  -1.078222241347207E2  -3.001917941922907E1   4.733713224334659E1  -2.694564516033060E1  -3.288086964039677E1  
                        -2.529615231480706E1  -1.053264031408576E2  -1.584174635612875E1  -9.812271389922763  -2.637006660949556E1  -1.552474954378450  -2.479558402301007E1  -7.276550817422582E1  
                        -3.003006963893595E1   4.733162740910250E1  -2.636424966301174E1  -5.077856576279945  -2.284115136386210E1   1.097488158693932E1  -2.587011455296613E1  -1.135764945147901E2  
                        -2.693801720663585E1  -3.081281957318850E1  -2.469157451485632E1  -7.273977116649002E1  -2.577718280938872E1  -1.102676962609594E2  -1.175557985915440E1   7.615262121941562E1  
                        
 4.162567567567567E10   -1.960979793755151E1  -2.767123859726461E1  -2.502015683193466E1   1.414508261689807E2  -3.068657651993324E1  -7.019199273536007E1  -2.652121588859966E1  -1.421103649016957E2  
                        -2.505302048304163E1   1.444935733521850E2  -1.631295222738256E1  -5.707214181107101E1  -2.654154027515737E1  -1.133724590945202E2  -2.448643341806919E1  -1.239815609488336E2  
                        -3.071062897990749E1  -7.047594240843969E1  -2.651713732968920E1  -1.169546245436595E2  -1.572084213354867E1  -1.180574092137509E2  -2.545952141799619E1   1.345229231050421E2  
                        -2.657262089643302E1  -1.401463149547061E2  -2.452532450029246E1  -1.248312935807283E2  -2.560958069031443E1   1.374687696580581E2  -1.384284991308294E1   4.421954800253813E1  
                        
 4.169573573573573E10   -1.655811689386724E1   1.760201418450311E2  -2.505892595012330E1   3.030028570007888E1  -3.064673135442489E1   1.769010819002062E2  -2.642252737928586E1   1.052061570037681E2  
                        -2.515196844517165E1   3.299420132408788E1  -1.702350293134245E1  -8.835066866106050E1  -2.668132224941215E1   1.375504805704105E2  -2.484643981724491E1  -1.766352294429336E2  
                        -3.082707040355927E1   1.759148198567276E2  -2.671954141433510E1   1.340756838352183E2  -1.406981851204986E1   1.587354019952496E2  -2.539205378068818E1   2.391735552772516E1  
                        -2.639875999522299E1   1.061993028089118E2  -2.498925482577619E1  -1.752357422076979E2  -2.551048996899661E1   2.605901203945966E1  -1.579762676031762E1   2.910949000416897  
                        
 4.176579579579579E10   -1.371103580954599E1   8.782668993573005E1  -2.532806933375103E1  -8.122671950533109E1  -2.961402954889422E1   6.241071561372505E1  -2.671289927650905E1  -7.192296601403803  
                        -2.542847203403818E1  -7.571702808138183E1  -1.569652780437709E1  -1.174807048192883E2  -2.680753267891890E1   2.777725283111814E1  -2.644230004824610E1   1.373740444874549E2  
                        -2.972114240338866E1   6.226393678576523E1  -2.683328862729817E1   2.445516563054569E1  -1.952309147759221E1   5.533637382426301E1  -2.564633958995022E1  -8.714484723187377E1  
                        -2.681477895588948E1  -3.544954920785513  -2.644937483895886E1   1.363753224612569E2  -2.573360029154645E1  -8.314816229440521E1  -1.432928852701379E1  -2.399539827189521E1  
                        
 4.183585585585585E10   -1.680402847029565E1  -2.238263057841196  -2.536100931251792E1   1.722353411857307E2  -2.860978177665931E1  -5.884207950185287E1  -2.696561362127820E1  -1.160161051032982E2  
                        -2.546683660516968E1   1.742097443464916E2  -1.413126062087157E1  -1.521068357948245E2  -2.712515830567906E1  -8.219953893439225E1  -2.758937970787174E1   1.029684705723864E2  
                        -2.847982755743865E1  -5.967904210194455E1  -2.710685490275736E1  -8.563555573869623E1  -1.914621546174067E1  -8.795022849883299E1  -2.586198042955220E1   1.627049484048613E2  
                        -2.704984322381209E1  -1.133889780294193E2  -2.750288521960028E1   1.024955255341587E2  -2.586876201892139E1   1.655804013769537E2  -1.480921160023588E1  -6.225282675904568E1  
                        
 4.190591591591591E10   -2.171593857248248E1  -1.545460543663400E2  -2.539662269655173E1   6.149865403517961E1  -2.808496777456992E1   1.746281814415619E2  -2.721241623506147E1   1.332376417479499E2  
                        -2.554270342758416E1   6.612693887554713E1  -1.367758716505887E1   1.675840907114886E2  -2.742865936623791E1   1.695639779343368E2  -2.681068272329800E1   6.815298329315912E1  
                        -2.793097389654231E1   1.736981013540146E2  -2.726555733434271E1   1.652935278840224E2  -1.723180106880677E1   1.666541354953737E2  -2.624684527969979E1   5.474124616157125E1  
                        -2.731821627924548E1   1.378727068219654E2  -2.679943326806382E1   6.755429480333164E1  -2.612436268973496E1   5.817424980566278E1  -1.306019633971612E1  -1.201203640280384E2  
                        
 4.197597597597598E10   -1.613405078911130E1   8.581169171723445E1  -2.559325882352393E1  -4.655534442841950E1  -2.821741568897322E1   4.953004262281145E1  -2.769364057374305E1   2.494128036669500E1  
                        -2.549295144579511E1  -4.178915851886905E1  -1.353867954880005E1   1.221322268280784E2  -2.746909405526641E1   6.283253220242560E1  -2.524358034731196E1   2.701724675735921E1  
                        -2.825604529503756E1   4.893248436369975E1  -2.743157442784502E1   5.901652633775020E1  -1.836180739189549E1   7.771718454833845E1  -2.642528120075330E1  -5.285344720424718E1  
                        -2.765855840123142E1   2.980834191394741E1  -2.501721941618658E1   2.757622840838929E1  -2.647261471796657E1  -4.869578710320586E1  -1.246672892280770E1  -1.575119992403805E2  
                        
 4.204603603603603E10   -1.641316101077379E1   7.106693238015729  -2.532857872807146E1  -1.539229137523658E2  -2.868319942024230E1  -7.497900533303559E1  -2.753334122345276E1  -8.216442926813879E1  
                        -2.528991408553859E1  -1.497678731782939E2  -1.464988584448792E1   8.121562088117528E1  -2.722442630906305E1  -4.527986618650936E1  -2.358595035746976E1  -2.224756319814938E1  
                        -2.896632789124544E1  -7.447545244262318E1  -2.728226459877402E1  -5.034024248148613E1  -1.839351148287532E1  -4.235696349579116E1  -2.606261827183481E1  -1.597275327801555E2  
                        -2.746287550428037E1  -7.850099008255116E1  -2.363793432811212E1  -2.360507748050202E1  -2.598989534614669E1  -1.557369337910553E2  -1.320876256523949E1   1.540000761647548E2  
                        
 4.211609609609609E10   -2.469657403198695E1  -9.658961489444972E1  -2.497420718770777E1   9.685849274082062E1  -3.014382403203550E1   1.658561650297856E2  -2.732463878508955E1   1.692736869998333E2  
                        -2.490489838110937E1   1.005098970366697E2  -1.703053903968061E1   4.153732576855118E1  -2.722654647937068E1  -1.555473777455028E2  -2.310662613298667E1  -7.596123665618306E1  
                        -3.036119078262163E1   1.670507187538590E2  -2.728022125691357E1  -1.581584173828561E2  -1.859646031258283E1  -1.488361263405406E2  -2.577102320713705E1   9.274508538285527E1  
                        -2.741703689181178E1   1.727141248969928E2  -2.310816095637355E1  -7.593156394350430E1  -2.583396813144611E1   9.494775604979135E1  -1.264967728036517E1   1.173030786219133E2  
                        
 4.218615615615615E10   -2.055982903595733E1   1.035906713874390E2  -2.458660183111994E1  -1.397437274747648E1  -3.116017215713091E1   5.256432695130507E1  -2.712145967697034E1   5.917745915475722E1  
                        -2.467193950115841E1  -1.028251812219288E1  -1.886646817679829E1   1.227627931297321  -2.698730887918742E1   9.717705886507905E1  -2.334128665699809E1  -1.296959029569361E2  
                        -3.108369672665840E1   5.265124690430496E1  -2.699805908130380E1   9.360646923037223E1  -1.894334324337456E1   9.047071941278709E1  -2.542418107155679E1  -1.575410853768814E1  
                        -2.722295919539640E1   6.124070426755785E1  -2.322874713797688E1  -1.300220909643977E2  -2.525486434646296E1  -1.338718116046463E1  -1.479504984886538E1   8.991226899583265E1  
                        
 4.225621621621621E10   -1.726866750391496E1   1.528322745130149E1  -2.447920536184624E1  -1.238345211284012E2  -3.105910559566790E1  -5.616496693434468E1  -2.727151628380655E1  -5.090464118666747E1  
                        -2.450842634885560E1  -1.207701225671687E2  -2.028154361787899E1  -2.983832109789360E1  -2.671234884205219E1  -1.348092727130566E1  -2.438360092266566E1   1.797653678782360E2  
                        -3.117775265380994E1  -5.692891017242706E1  -2.694878033193341E1  -1.665633300907340E1  -1.816174676983011E1  -3.030115902229592E1  -2.516075334078294E1  -1.271605259749320E2  
                        -2.713382972606994E1  -4.784970639133113E1  -2.440609272547452E1   1.792954988491176E2  -2.502861087753189E1  -1.232621169061472E2  -1.615875700259051E1   4.987158168779614E1  
                        
 4.232627627627628E10   -1.816887113355740E1  -6.378317364073896E1  -2.448089419651430E1   1.253624597237460E2  -3.030971667338023E1  -1.717834561040739E2  -2.697803638324620E1  -1.621743452318550E2  
                        -2.447489750358552E1   1.285588511447610E2  -1.910563725977237E1  -7.100247476380325E1  -2.692878807350984E1  -1.244300035775092E2  -2.579033374617150E1   1.368565572797367E2  
                        -3.012589707558946E1  -1.716286670943785E2  -2.684545929253282E1  -1.287469519991778E2  -1.874937574729857E1  -1.192782106827811E2  -2.492349046972047E1   1.225783413665532E2  
                        -2.701846938319106E1  -1.582726497704592E2  -2.581672109917885E1   1.360323291223600E2  -2.496277259613338E1   1.249423398921960E2  -1.520351377966278E1   2.459186412944899E1  
                        
 4.239633633633633E10   -3.113569176786890E1  -1.527173100126032E2  -2.437030852565458E1   1.345599053121206E1  -2.931129312266406E1   6.687681757348523E1  -2.695854198990665E1   8.696654281147636E1  
                        -2.448245368018694E1   1.727664314712244E1  -1.745940757806633E1  -1.122326946537960E2  -2.701510377439271E1   1.249001347077644E2  -2.641814574557711E1   1.008534304303535E2  
                        -2.929131997680554E1   6.664844148813205E1  -2.712617378133469E1   1.221785322231873E2  -2.241790631886395E1   1.218177435973555E2  -2.480735760075574E1   1.115592361934366E1  
                        -2.688878316780409E1   8.981469606289836E1  -2.636469132874908E1   1.001602322533160E2  -2.481552810086561E1   1.413165742643406E1  -1.708034157134461E1  -9.269741388785835  
                        
 4.246639639639639E10   -2.106101299300863E1   7.762522261049442  -2.469051069028510E1  -9.773952913663577E1  -2.960747810969012E1  -5.603865991785113E1  -2.720813885429514E1  -2.580488076021575E1  
                        -2.453978390868910E1  -9.379400870063591E1  -1.744285871271774E1  -1.544587705484157E2  -2.725634773404610E1   1.741201618773849E1  -2.544860154728189E1   6.257984691857789E1  
                        -2.945728523214613E1  -5.893899641986329E1  -2.722887091301506E1   1.180630200381849E1  -2.051799043643797E1   1.696460885755911  -2.497014515842336E1  -1.007072197003784E2  
                        -2.722969117097635E1  -2.290103920978659E1  -2.539256355484554E1   6.174167420546819E1  -2.505665946501113E1  -9.501166254244153E1  -1.590417578033199E1  -6.460098641995546E1  
                        
 4.253645645645645E10   -1.634683836133767E1  -5.950072993460788E1  -2.481291064586939E1   1.527068858100930E2  -3.032323640966706E1  -1.778236576240216E2  -2.744065273377708E1  -1.353040988870753E2  
                        -2.483372758490365E1   1.566736861560902E2  -1.837118037144906E1   1.627133423118760E2  -2.747533885378957E1  -9.277454191716683E1  -2.424918676713694E1   1.660982363143431E1  
                        -3.029157692229329E1  -1.791535938412409E2  -2.747902979561257E1  -9.584559193709659E1  -1.836182946536391E1  -1.003176232644269E2  -2.514638056616614E1   1.499704423825109E2  
                        -2.739567156233341E1  -1.323221791260128E2  -2.426616299128580E1   1.624932262387323E1  -2.517550890176374E1   1.552869946199141E2  -1.620059310710807E1  -9.791404218496939E1  
                        
 4.260651651651651E10   -1.837611408644302E1  -1.172099236715282E2  -2.468439431728885E1   4.398060796883517E1  -3.122117981211696E1   6.373959899639466E1  -2.766061444975243E1   1.135319003149908E2  
                        -2.479768204245552E1   4.821382136371593E1  -1.964904257479502E1   1.353671361789182E2  -2.753642800933413E1   1.602977600217016E2  -2.348692004075824E1  -3.321618176830312E1  
                        -3.122206830997361E1   6.220092908770595E1  -2.741344485959734E1   1.546922537454890E2  -2.519637105475950E1   1.570423324359695E2  -2.514447375572956E1   4.102300814483590E1  
                        -2.774632042818498E1   1.169848615481038E2  -2.340501418860181E1  -3.476852968531803E1  -2.513180825086735E1   4.410786785426578E1  -1.805777096338672E1  -1.525333187307183E2  
                        
 4.267657657657658E10   -3.520839684019070E1   4.935517089835988E1  -2.478593532907024E1  -6.542844924152691E1  -3.226178850410170E1  -4.978945414663919E1  -2.816169241082704E1   4.245586845526037  
                        -2.485277067307523E1  -6.207321816339388E1  -2.168486170203201E1   1.113753404979642E2  -2.766654002708820E1   5.101280859580412E1  -2.325855002669258E1  -8.590349160499338E1  
                        -3.207788009046274E1  -4.989202007459152E1  -2.767654905104073E1   4.812394493770900E1  -2.177712661826822E1  -5.792889967910385  -2.530967638380963E1  -6.844356614830890E1  
                        -2.804167441123737E1   7.026647820916463  -2.317344082366626E1  -8.622240883658184E1  -2.536898636710381E1  -6.589260727345356E1  -1.686816257662896E1   1.719096442387851E2  
                        
 4.274663663663664E10   -1.670672716169122E1  -5.313522542203718E1  -2.478717063255614E1  -1.746330970146815E2  -3.221014914319944E1  -1.571572513830778E2  -2.850532798134123E1  -1.049836746929288E2  
                        -2.497955953224550E1  -1.718968737995059E2  -2.173389465099997E1   8.994153205209470E1  -2.762404157764506E1  -5.754890596095729E1  -2.372602821857886E1  -1.385205640751711E2  
                        -3.210869916544443E1  -1.581120943154399E2  -2.744365901190123E1  -6.186399659665194E1  -1.762894138266107E1  -9.195764636107813E1  -2.530723259169016E1  -1.781196013924287E2  
                        -2.841987666289728E1  -1.020768615289111E2  -2.356046729662469E1  -1.384426998329252E2  -2.517730833782951E1  -1.740882661698804E2  -1.865505880801376E1   1.545219314868658E2  
                        
 4.281669669669669E10   -1.460928359963904E1  -1.146405123025667E2  -2.476427468430155E1   7.667111237363093E1  -3.104597800797346E1   9.191222261322983E1  -2.870979238010814E1   1.474388296491473E2  
                        -2.484968379697943E1   8.002650797486216E1  -2.098805022634416E1   5.795692990501495E1  -2.739770351794464E1  -1.676305887488320E2  -2.470970733243705E1   1.722847495337055E2  
                        -3.106807542722662E1   9.072420222640650E1  -2.745528013155708E1  -1.720291053008756E2  -2.010965262449491E1  -1.503352830925066E2  -2.513317241359834E1   7.460804942146670E1  
                        -2.867376092779378E1   1.497846405599858E2  -2.468118143743560E1   1.710763725843404E2  -2.527033982877356E1   7.651546485848326E1  -1.812372990500442E1   1.132756356649868E2  
                        
 4.288675675675675E10   -2.545577538154370E1  -1.667152160804497E2  -2.445801580504355E1  -3.402269191391798E1  -2.960938075782906E1  -2.823512335043361E1  -2.850433506922774E1   3.762955824342630E1  
                        -2.460910856386575E1  -3.112593674962003E1  -2.117641647877528E1   1.579248671946337E1  -2.742263016606749E1   8.347187956462228E1  -2.602171153867864E1   1.261687662747782E2  
                        -2.950117521719125E1  -2.865569131982467E1  -2.738781761860995E1   7.913463148544322E1  -3.275788604126539E1   4.858324756603866E1  -2.498726952715014E1  -3.557954180573208E1  
                        -2.869581535757671E1   4.054636290808540E1  -2.613781732876045E1   1.256702992890364E2  -2.524649671878157E1  -3.259729453757694E1  -1.482188826156826E1   8.963365892043534E1  
                        
 4.295681681681681E10   -1.899844336331463E1  -4.970491978397924E1  -2.455764304427834E1  -1.460024542234876E2  -2.886878705428183E1  -1.542857904638260E2  -2.866745491738686E1  -7.170568711595792E1  
                        -2.464520919910991E1  -1.418095110965224E2  -2.002671204987156E1  -2.022030206656464E1  -2.755288810810478E1  -2.786467149917725E1  -2.701966073414251E1   8.811002485078947E1  
                        -2.880725182919611E1  -1.537632003494652E2  -2.756606174209256E1  -3.146910136901218E1  -1.972848855428629E1  -7.435438369888946E1  -2.502748020004855E1  -1.461824579793303E2  
                        -2.850554308542849E1  -6.863593974082160E1  -2.693894947392817E1   8.691438070286793E1  -2.503685055754565E1  -1.434973463734232E2  -1.536455124148109E1   5.597241946707834E1  
                        
 4.302687687687688E10   -1.475059475613646E1  -1.038709528117558E2  -2.475901431092837E1   1.045346980199990E2  -2.924587076793665E1   8.082945333286439E1  -2.853383825189843E1   1.782591647676133E2  
                        -2.487661164499488E1   1.082438989248816E2  -2.084013195994543E1  -6.000970753933378E1  -2.766578030375622E1  -1.349058683688391E2  -2.700993304617877E1   5.094825550254661E1  
                        -2.910908277522905E1   8.097724487884321E1  -2.764063424137116E1  -1.403363256095475E2  -1.723507888594827E1  -1.342279141712832E2  -2.490967920169979E1   1.050192272703610E2  
                        -2.866644771995936E1  -1.786521934638763E2  -2.699302431978402E1   5.015459097300243E1  -2.497571181288044E1   1.077470423095291E2  -1.457742453133879E1   5.012822513707942  
                        
 4.309693693693694E10   -1.825388969043270E1  -1.608855358560582E2  -2.475012220988742E1  -6.155886481561425  -3.003637974815525E1  -3.973751681022277E1  -2.862783361595946E1   6.717147587630605E1  
                        -2.501555379997593E1  -1.977542602678119  -2.009698264977642E1  -1.066557434144039E2  -2.749633972186797E1   1.147501654780934E2  -2.590181154831449E1   1.008082536597398E1  
                        -3.011134661173814E1  -4.099244693381867E1  -2.754812021751429E1   1.104994448094751E2  -2.390367797743507E1   1.713958543316515E2  -2.482841111990237E1  -6.189437800847046  
                        -2.861744290604846E1   7.098709890818779E1  -2.571239984563213E1   7.855201869375530  -2.473415200489748E1  -3.168964967681708  -1.448003868417084E1  -2.700152841747851E1  
                        
 4.316699699699699E10   -2.382725781229281E1  -2.433463057932318E1  -2.511590247381566E1  -1.176373505493282E2  -3.137348784573850E1  -1.565843994513249E2  -2.871120359642811E1  -4.429513015748780E1  
                        -2.510707470727579E1  -1.133285023297842E2  -1.891154275394675E1  -1.437475297170848E2  -2.764838245405613E1   4.939525275291023  -2.497927677272457E1  -4.023807311377361E1  
                        -3.143821601164687E1  -1.565291315184998E2  -2.764983537627433E1   8.585022437305481E-1  -2.478860977213611E1  -6.142200827631508E1  -2.509064688260846E1  -1.182643293054103E2  
                        -2.875214404976165E1  -4.153937682786602E1  -2.502248251578457E1  -4.106566030739311E1  -2.501373176424919E1  -1.150824736450097E2  -1.723568700336793E1  -7.494060335325932E1  
                        
 4.323705705705705E10   -1.461680588670681E1  -1.010534801050636E2  -2.549727809841782E1   1.345647842255300E2  -3.158692697530835E1   9.751355198874194E1  -2.923710328594573E1  -1.551921708843719E2  
                        -2.542225036273519E1   1.369507406841142E2  -1.807237242930236E1   1.789471988065918E2  -2.777075406859030E1  -1.035824727828301E2  -2.481946470609041E1  -9.313805632339394E1  
                        -3.168684716928322E1   9.550588649584694E1  -2.779776742575136E1  -1.082256486058812E2  -1.679565763493059E1  -1.263575891695103E2  -2.528506783825776E1   1.312227167709366E2  
                        -2.919268945602384E1  -1.522539191996203E2  -2.482806581430454E1  -9.231313302350881E1  -2.514748453043528E1   1.366180425471362E2  -1.554455038972592E1  -1.118807133719859E2  
                        
 4.330711711711711E10   -1.542249971259297E1  -1.654617931907155E2  -2.559588899346160E1   2.607685234349798E1  -3.026838679579186E1  -1.613975082400497E1  -2.965184191395768E1   9.537396121958338E1  
                        -2.552830606197231E1   2.953982126518240E1  -1.667154970291741E1   1.407982363628983E2  -2.816221116219982E1   1.460353130422633E2  -2.548043276204103E1  -1.448800855652019E2  
                        -3.037896356364362E1  -1.813618613726289E1  -2.811055492333047E1   1.419385903593107E2  -1.829361920551197E1   1.775917965774433E2  -2.555859420738944E1   2.351812484281602E1  
                        -2.969434512220002E1   9.929639395879337E1  -2.540691052598576E1  -1.462476785487974E2  -2.547854843888623E1   2.586339593664297E1  -1.555079039274476E1  -1.373022141496211E2  
                        
 4.337717717717717E10   -3.263705500595948E1   9.742762498628898E1  -2.552249623203653E1  -8.304327798478425E1  -2.867662021837767E1  -1.392339050253477E2  -3.002319126353501E1  -1.076822990113717E1  
                        -2.544639141946299E1  -7.940239408259194E1  -1.531536572230872E1   1.084860750249492E2  -2.810184523813793E1   3.651778523761040E1  -2.684414499295859E1   1.671887059739760E2  
                        -2.886611337308340E1  -1.392685985323452E2  -2.819163726562675E1   3.247561319788923E1  -3.342416193509608E1   2.014489743859605E1  -2.575751957339484E1  -8.653637363167459E1  
                        -3.008764728844976E1  -8.890908255259019  -2.692115395234433E1   1.661196625084257E2  -2.565094671331217E1  -8.329744211920831E1  -1.486171443611430E1   1.712186832110163E2  
                        
 4.344723723723724E10   -1.769226473618088E1  -7.982905726777372E1  -2.562650586245877E1   1.672002588024337E2  -2.846837316339883E1   9.246304508264561E1  -3.028319056798034E1  -1.191741499133229E2  
                        -2.556626288863025E1   1.713801712471726E2  -1.512818629363440E1   6.678039139491629E1  -2.842929674192568E1  -7.173329527245480E1  -2.845296656072281E1   1.237107474908453E2  
                        -2.860713566222232E1   9.347760072244958E1  -2.842602882784912E1  -7.634284324079867E1  -1.711850597469285E1  -1.136635179806064E2  -2.591723290652165E1   1.661819309962964E2  
                        -3.035957346481461E1  -1.165951942334047E2  -2.833505817035696E1   1.235027563043495E2  -2.605426086476076E1   1.683705998277965E2  -1.253634770628099E1   1.326201510133517E2  
                        
 4.351729729729730E10   -1.507057063388632E1  -1.551090144925821E2  -2.579089170006211E1   5.858653363359633E1  -2.926112848256649E1  -3.351649759557441E1  -3.071179681662979E1   1.342568449915493E2  
                        -2.571704781182072E1   6.260446306850636E1  -1.431050287012058E1   2.370880346682927E1  -2.838034299558929E1  -1.789120753631553E2  -2.934552244361792E1   9.027339103593960E1  
                        -2.899171907660437E1  -3.456132545408939E1  -2.861582613437513E1   1.770830435214006E2  -1.509157314513617E1  -1.781710744943618E2  -2.598035262760017E1   5.970092206597293E1  
                        -3.031016347991207E1   1.375684527915366E2  -2.930344306891014E1   8.957743831541187E1  -2.577864962968009E1   6.358168566738338E1  -1.262268150439619E1   8.909849830471399E1  
                        
 4.358735735735735E10   -1.830952297469629E1   1.106081297457768E2  -2.562331380021158E1  -5.003248407618242E1  -3.041691491071471E1  -1.583347406703798E2  -3.011472129147336E1   2.739733919293888E1  
                        -2.560913644614034E1  -4.637576215992124E1  -1.470010046912791E1  -1.895073293608648E1  -2.819665201352701E1   7.246786082997474E1  -2.853672575508728E1   5.324716073415122E1  
                        -3.027550632226902E1  -1.593511835886600E2  -2.817483049556827E1   6.845275398969308E1  -2.547465812608549E1   9.473206149616489E1  -2.566136976987017E1  -5.005345555431522E1  
                        -3.026811614078774E1   2.961550471642252E1  -2.849364327865352E1   5.256829852077836E1  -2.563091893680617E1  -4.706082772873975E1  -1.171921985645198E1   4.033240884203019E1  
                        
 4.365741741741741E10   -1.935157610266570E1  -3.911456805856012E1  -2.556080975150053E1  -1.606407085983452E2  -3.245338232189918E1   8.548722563470516E1  -2.972070135935442E1  -8.290271046483690E1  
                        -2.559556925505942E1  -1.565743088657736E2  -1.475723624750243E1  -6.812031149964081E1  -2.811959760536536E1  -3.764316653161720E1  -2.731223201244065E1   9.401800733527997  
                        -3.256580002995570E1   8.501281041683242E1  -2.827909767828404E1  -4.124900273101283E1  -1.868042288347792E1  -1.004101547749896E2  -2.535972279892980E1  -1.600337441544435E2  
                        -2.983919437644191E1  -8.038089486847024E1  -2.745840578599584E1   8.444484384994777  -2.560972060083520E1  -1.553992639362944E2  -1.212055692534410E1   5.504259638896782  
                        
 4.372747747747747E10   -1.705836417884518E1  -1.525471064551234E2  -2.566037431911148E1   8.897124139323690E1  -3.355268030207981E1  -2.013504874683874E1  -2.966565230982820E1   1.639298966970736E2  
                        -2.562959048992710E1   9.225389500275875E1  -1.448305954865579E1  -1.093408105762572E2  -2.849387835081047E1  -1.488631781952701E2  -2.661311186694497E1  -4.208205516837597E1  
                        -3.347212866740549E1  -2.119508164579699E1  -2.822126283628419E1  -1.513536498369716E2  -1.514119995338860E1  -1.716329229153999E2  -2.542491241120356E1   8.970155436928552E1  
                        -2.976577354263750E1   1.667344247719640E2  -2.668844463520075E1  -4.204926958880739E1  -2.537460235316625E1   9.133327208161386E1  -1.364400318454125E1  -4.081730299158873E1  
                        
 4.379753753753754E10   -1.701931075977439E1   1.158593793024512E2  -2.576226693197432E1  -2.076525721449193E1  -3.193555905785676E1  -1.292583177322707E2  -2.998093075470738E1   5.317316579785406E1  
                        -2.579847891674376E1  -1.641945317277986E1  -1.432160488690735E1  -1.489466181619825E2  -2.850049069552946E1   1.034269099300626E2  -2.700185596925475E1  -9.326781338497412E1  
                        -3.196720920671861E1  -1.293869074276150E2  -2.835394232479679E1   9.788444315247509E1  -1.972204986529443E1   1.265160852611722E2  -2.542771596727852E1  -2.246136292382077E1  
                        -3.012230216426649E1   5.670883435306435E1  -2.700978947796164E1  -9.317115112162938E1  -2.561823827047433E1  -1.772910092823637E1  -1.230365248063437E1  -7.567046359347924E1  
                        
 4.386759759759760E10   -2.005194098655735E1   9.996559358522291  -2.609367488578374E1  -1.306949540406678E2  -3.060108636532016E1   1.059976418733325E2  -3.032274230218993E1  -5.811208805786688E1  
                        -2.612983520129029E1  -1.260088443208495E2  -1.348171804457483E1   1.676584411170487E2  -2.873314981658139E1  -8.273883005312634  -2.762024273354039E1  -1.411181807879554E2  
                        -3.076495651198866E1   1.058554228241435E2  -2.853184017020599E1  -1.287258892319940E1  -2.185352722152931E1  -8.555263834554241E1  -2.575943799806768E1  -1.330220766121620E2  
                        -3.039413477618429E1  -5.381713586853152E1  -2.764167515739398E1  -1.411773516231217E2  -2.570122658741002E1  -1.299805408945221E2  -1.329718980098869E1  -1.077062770216386E2  
                        
 4.393765765765765E10   -1.827996719730313E1  -1.301805624473688E2  -2.629530395118081E1   1.205663526779663E2  -3.084606599345280E1  -2.207048035124094E1  -3.107157648591746E1  -1.664409024509623E2  
                        -2.627482918719679E1   1.255687456959282E2  -1.282285342167124E1   1.251647562467482E2  -2.896768664391244E1  -1.155160147918584E2  -2.885454499103673E1   1.721818376324723E2  
                        -3.071415935023101E1  -2.166277289069989E1  -2.904748204583594E1  -1.207123657952938E2  -1.482778512308124E1  -1.614623731632914E2  -2.632453045997138E1   1.186884072183305E2  
                        -3.098795740174490E1  -1.629414985597994E2  -2.874366669761282E1   1.726410213381295E2  -2.637938461442771E1   1.227251452821211E2  -1.262013387061434E1  -1.630136209266728E2  
                        
 4.400771771771771E10   -1.545278714964024E1   1.214477843633540E2  -2.653274667342271E1   1.412861393102483E1  -3.185044714250305E1  -1.491756484265235E2  -3.149081795100187E1   8.769535713406974E1  
                        -2.659814954865852E1   1.724353252243484E1  -1.207557122242916E1   7.982476116700333E1  -2.909217011923981E1   1.363783493901215E2  -2.950633750339778E1   1.319638540323235E2  
                        -3.194963460663286E1  -1.487712233374238E2  -2.915204946004446E1   1.333666573748209E2  -1.809025230623993E1   1.270891231228158E2  -2.650426758902888E1   1.238751739056937E1  
                        -3.146647141617099E1   9.069070697238200E1  -2.949309858934610E1   1.312753904919990E2  -2.652869591515591E1   1.571859327490900E1  -1.147482798324853E1   1.571153587417766E2  
                        
 4.407777777777777E10   -1.595256133091796E1   1.829985001086822E1  -2.651012883540885E1  -9.290966445039949E1  -3.427119149209965E1   8.620698721819842E1  -3.128311162218433E1  -1.838239885433753E1  
                        -2.645698885679843E1  -8.877232445198789E1  -1.139242827900303E1   3.737063913979079E1  -2.902631211754593E1   2.742258113062653E1  -2.999701317644684E1   9.245990086956530E1  
                        -3.430915849843935E1   8.654536292484676E1  -2.899748024884802E1   2.484993672054472E1  -2.583408359442089E1  -7.582190768733422E1  -2.647462114799682E1  -9.532029039337638E1  
                        -3.126323403850114E1  -1.567843484214723E1  -3.003424512446682E1   9.154497791064327E1  -2.628228589900062E1  -9.344499898050616E1  -1.229154830924216E1   1.069596689504873E2  
                        
 4.414783783783784E10   -1.954415177094456E1  -1.018805693854262E2  -2.619133397094211E1   1.593575139339706E2  -3.809862366042867E1  -2.265381703683782E1  -3.103992292934741E1  -1.252731060672086E2  
                        -2.630932903823586E1   1.631479907117318E2  -1.191843090782144E1  -2.621810867666232  -2.917032409416156E1  -7.954770090807948E1  -2.954074278631495E1   5.287739869325246E1  
                        -3.748149118782396E1  -2.023516339102961E1  -2.902013829031641E1  -8.333615426402361E1  -1.618185731386524E1  -1.503953196789198E2  -2.634147406545961E1   1.570005757494549E2  
                        -3.085773869396893E1  -1.225314766948262E2  -2.967402622646692E1   5.252420867455454E1  -2.665247108420226E1   1.606704761925643E2  -1.058890047882250E1   5.977030164297224E1  
                        
 4.421789789789790E10   -1.728685946734442E1   1.272298670574015E2  -2.581562669549786E1   4.864655931151555E1  -3.797210571261989E1  -1.078151826219386E2  -3.048992655235543E1   1.246415345700591E2  
                        -2.589873256413813E1   5.285367302795606E1  -1.235606111556817E1  -4.424214594267627E1  -2.880056027110861E1   1.709556021500289E2  -2.928651745567395E1   1.001264905966479E1  
                        -3.812568782089482E1  -1.067661284846391E2  -2.878847936253478E1   1.663762822214140E2  -1.692116280381231E1   1.459399262794670E2  -2.599916090879802E1   4.882457233092266E1  
                        -3.048755037263538E1   1.272039852244798E2  -2.918232605082770E1   9.271571316790029  -2.562691065226932E1   5.201645104441591E1  -1.161024604918549E1   2.426046693107346E1  
                        
 4.428795795795795E10   -1.650727887404917E1   4.058395319288940E1  -2.583932397303736E1  -6.179916179329911E1  -3.468380598933812E1   1.409773638758974E2  -3.025264017252237E1   1.254160686574794E1  
                        -2.584852302046858E1  -5.730902391398666E1  -1.321013232170300E1  -8.276999809131125E1  -2.872648367695652E1   6.067666950656091E1  -2.877873114704521E1  -3.554089446865702E1  
                        -3.490026659275498E1   1.407217908712359E2  -2.882944116820250E1   5.611859462831208E1  -2.805560391871272E1   1.935966182795882E1  -2.546769947166576E1  -6.244565727020483E1  
                        -3.030751159070276E1   1.739604186425117E1  -2.868880005662741E1  -3.597470769565779E1  -2.562468381601124E1  -5.827508543310591E1  -1.195723666729871E1  -2.432092322533390E1  
                        
 4.435801801801801E10   -1.878305600021179E1  -7.383511584938643E1  -2.593846507407721E1  -1.715749282759788E2  -3.388625227574300E1   1.269866022459830E1  -3.019371699307778E1  -9.901145265789947E1  
                        -2.581917637991112E1  -1.683430446032136E2  -1.368787752853238E1  -1.288195281133544E2  -2.891364440610694E1  -5.166237786617063E1  -2.825834783549514E1  -8.465451226092299E1  
                        -3.356734320810382E1   1.292819912518068E1  -2.887659929494195E1  -5.445386621895802E1  -1.643896001395199E1  -1.304673373257217E2  -2.556442601998570E1  -1.744908023338664E2  
                        -3.032081236265302E1  -9.586375142542374E1  -2.839165261589458E1  -8.434982952778000E1  -2.572101288261407E1  -1.715403514212644E2  -1.118489291578157E1  -5.355833381402704E1  
                        
 4.442807807807807E10   -1.748256763745414E1   1.581911920181678E2  -2.606186909365521E1   7.886867791281630E1  -3.446566314819020E1  -1.134937368638006E2  -3.073280502219221E1   1.494274784301321E2  
                        -2.624153505594786E1   8.054067644201145E1  -1.278909949196859E1  -1.742483153020857E2  -2.917783523430495E1  -1.606558386146053E2  -2.853506967747423E1  -1.353874082310221E2  
                        -3.439762589222199E1  -1.150438211702764E2  -2.908438738825627E1  -1.621924085607292E2  -1.548938874892390E1   1.643783399491495E2  -2.602587423090574E1   7.606059805786386E1  
                        -3.067068322546502E1   1.518230619386997E2  -2.849132416242733E1  -1.352107838879901E2  -2.600765497266327E1   7.931602300265246E1  -1.263352309197775E1  -9.198611080051614E1  
                        
 4.449813813813814E10   -1.654889786534207E1   4.957663962820915E1  -2.650026715728579E1  -3.137787211489518E1  -3.656052274921915E1   1.242797033394355E2  -3.123832969663014E1   4.059843715779961E1  
                        -2.650879630123649E1  -2.730239645504097E1  -1.259816645983344E1   1.393540310289272E2  -2.930112741675138E1   8.998120162988094E1  -2.957229240814158E1   1.757644325788371E2  
                        -3.655910783215605E1   1.236844398149935E2  -2.936542156862317E1   8.702265308776408E1  -2.714584328522498E1   7.727550330036232E1  -2.632532655405686E1  -3.472686435124984E1  
                        -3.113917129643795E1   4.365274882639755E1  -2.947287347609997E1   1.760139885313707E2  -2.609412528054025E1  -3.153916839540976E1  -1.151559791492044E1  -1.423899113700076E2  
                        
 4.456819819819820E10   -1.772191329411059E1  -6.226619342659842E1  -2.653522746653245E1  -1.386891287827704E2  -3.898294153822571E1   2.239807435983396E1  -3.149311603294213E1  -7.009412988217294E1  
                        -2.657761927463471E1  -1.346664235835519E2  -1.154777912231598E1   9.228310079453510E1  -2.966712758526361E1  -1.683964340501683E1  -3.078439151288832E1   1.328838577952710E2  
                        -3.905118821983545E1   2.112997485537951E1  -2.983788572583217E1  -2.093353599538375E1  -1.778835263244438E1  -1.147486643390182E2  -2.668121601849655E1  -1.439558462517367E2  
                        -3.135598869516658E1  -6.494309608254504E1  -3.078587342475978E1   1.320837916550737E2  -2.670170118227559E1  -1.404886626764028E2  -1.149065901575182E1  -1.774682073706862E2  
                        
 4.463825825825826E10   -1.715991660275835E1  -1.661305666273580E2  -2.651311055604835E1   1.134210262311026E2  -3.855804972397896E1  -6.960072547973836E1  -3.173200220956139E1  -1.757836042163652E2  
                        -2.637102218827455E1   1.187972839311097E2  -1.140392650451069E1   5.087760108851359E1  -2.981932329433495E1  -1.234397511753422E2  -3.179103460914859E1   9.459720436836905E1  
                        -3.814852112439311E1  -7.050399777229997E1  -2.990338323800543E1  -1.281450860092524E2  -1.386459719077694E1  -1.755242343774451E2  -2.671957089922012E1   1.108000466480365E2  
                        -3.141946987933584E1  -1.725911084346115E2  -3.170297329216844E1   9.460699840308267E1  -2.691178008690760E1   1.154531249246691E2  -1.229225465381769E1   1.277969501255452E2  
                        
 4.470831831831831E10   -1.851962512855241E1   9.454967016279019E1  -2.635093334442838E1   4.544285160174210  -3.482545531912319E1   1.785419961737604E2  -3.153128852986669E1   7.729021031039063E1  
                        -2.628565358184046E1   8.469930319019696  -1.178085325353662E1   7.023955835091688  -2.963562980379467E1   1.297331241299895E2  -3.120763882574459E1   6.161070040633017E1  
                        -3.498273551742530E1   1.765571419104943E2  -2.998453463425630E1   1.237058131279801E2  -2.024400394614480E1   1.175320199889782E2  -2.662771436956932E1   4.013959618767041  
                        -3.159072704984530E1   8.003066264969969E1  -3.129995527339206E1   5.844135387277583E1  -2.681733400140587E1   6.813876161513121  -1.121001623834125E1   8.464700201569390E1  
                        
 4.477837837837837E10   -2.080636780521737E1  -3.310989922236349E1  -2.605138805491896E1  -1.040903218216429E2  -3.327779260037263E1   5.120939234294474E1  -3.132926014762314E1  -3.144166305433217E1  
                        -2.610785270020084E1  -9.973595348209055E1  -1.164387058397751E1  -3.476328803780138E1  -2.976831138863150E1   1.868015271876245E1  -3.021890105576255E1   1.675141218833385E1  
                        -3.311052771188107E1   5.075451477407630E1  -2.950295290465448E1   1.493428554645837E1  -1.908185902201259E1  -1.059024242978307E2  -2.621682835032281E1  -1.051260920796612E2  
                        -3.107231485279809E1  -2.725494599520691E1  -3.032410191177586E1   1.699819986072535E1  -2.623051640867763E1  -1.002170267896962E2  -1.353595533107403E1   4.091698184088407E1  
                        
 4.484843843843843E10   -1.453736597726197E1  -1.502820622530713E2  -2.604951635124202E1   1.451474042974052E2  -3.321455713052811E1  -7.647726623315543E1  -3.100321894712645E1  -1.415364791645960E2  
                        -2.602497074269642E1   1.491742302284848E2  -1.249904601641287E1  -7.145139206655036E1  -2.974544657122495E1  -9.060939759622239E1  -2.906772141730099E1  -3.133763234679766E1  
                        -3.331685785837072E1  -7.723380996002652E1  -2.967871689071565E1  -9.490171167178458E1  -1.241098217767914E1  -1.732339545912104E2  -2.620994417506434E1   1.452939168795654E2  
                        -3.089667749066340E1  -1.389109297951774E2  -2.925892998655373E1  -3.110811570573672E1  -2.629718697345899E1   1.488238342690957E2  -1.235628991717746E1  -9.471350636735037  
                        
 4.491849849849850E10   -1.591364581923928E1   1.298786945015232E2  -2.600635541356607E1   3.493237064469185E1  -3.422999583988371E1   1.605806881559965E2  -3.071792294099757E1   1.083479811257709E2  
                        -2.596889999939356E1   3.842171629308234E1  -1.302943140707188E1  -1.108866008887054E2  -2.950373320035898E1   1.585228403967732E2  -2.908680842005372E1  -8.462713073093335E1  
                        -3.467026114278239E1   1.606218761739136E2  -2.959155460584877E1   1.563319067205446E2  -1.638646283845151E1   1.272646798820255E2  -2.587585173826103E1   3.479342940854182E1  
                        -3.061029252693142E1   1.103170596451538E2  -2.928642376400810E1  -8.417331850957335E1  -2.590987808484166E1   3.732502716635634E1  -1.270256863931952E1  -3.496891137372624E1  
                        
 4.498855855855856E10   -2.577796666296613E1  -2.235973870682183E1  -2.613649541792175E1  -7.632442310831671E1  -3.559926929857261E1   4.803745681903011E1  -3.058876870005877E1  -6.098224040905940  
                        -2.608184379414733E1  -7.202343621601094E1  -1.263844331998509E1  -1.512432204922266E2  -2.968558615858115E1   4.866105248910601E1  -3.020546077955348E1  -1.343193714785430E2  
                        -3.549184107701091E1   4.695842008221101E1  -2.977521639837121E1   4.335792077102698E1  -2.239271514616081E1  -1.047037458973860E2  -2.590506703021450E1  -7.879275908991382E1  
                        -3.060608777467991E1  -3.495373557501934  -3.024386154182878E1  -1.343765516491247E2  -2.566159391924533E1  -7.374946813337554E1  -1.344352745837173E1  -7.965972001171930E1  
                        
 4.505861861861861E10   -1.499383002640904E1  -1.484102275887399E2  -2.632318545781742E1   1.747341917616986E2  -3.543549298364233E1  -6.060544147147142E1  -3.134767707101808E1  -1.186087225752055E2  
                        -2.647954275704563E1   1.776455414176479E2  -1.289707796016486E1   1.609796545996418E2  -3.032120998454862E1  -5.997939161274612E1  -3.172009828324067E1  -1.770258140592130E2  
                        -3.567580795930782E1  -5.967899758629458E1  -3.039889193070672E1  -6.480888202339396E1  -1.215018217201686E1  -1.698437226189444E2  -2.643943060835830E1   1.728301991950505E2  
                        -3.128816558757156E1  -1.142249381913512E2  -3.168695536471729E1  -1.773216915007371E2  -2.666788223928748E1   1.750232515028942E2  -1.116436763321681E1  -1.199015645471554E2  
                        
 4.512867867867867E10   -1.306517790907009E1   1.455845559421985E2  -2.669865671805096E1   6.679957045668667E1  -3.442101811355055E1  -1.719329771182231E2  -3.193873471900571E1   1.352209591823154E2  
                        -2.663126431978997E1   7.105016386772928E1  -1.219709268641734E1   1.082942927999395E2  -3.075476665505456E1  -1.669615333118490E2  -3.243178780739753E1   1.474022047091938E2  
                        -3.414549029852766E1  -1.718700869664998E2  -3.053512776169852E1  -1.704398448388147E2  -1.356046454290713E1   1.334340421049525E2  -2.697283900745903E1   6.475707596344174E1  
                        -3.184625830060057E1   1.369498568415802E2  -3.239447259040916E1   1.452984689839328E2  -2.687296209813707E1   6.965135720461416E1  -1.214676188280326E1  -1.564076209912670E2  
                        
 4.519873873873873E10   -2.187193294467816E1   4.986444545363432E1  -2.657890302587680E1  -3.948477178327051E1  -3.260490355301035E1   6.720997412793501E1  -3.203692270201026E1   2.713056530542272E1  
                        -2.659174191773818E1  -3.533787559829228E1  -1.186917737516560E1   6.381900255934456E1  -3.034559327527260E1   8.502542024444523E1  -3.178935155529590E1   1.084780727420697E2  
                        -3.249740314825488E1   6.724892816286362E1  -3.016273502484117E1   8.254136286848355E1  -3.141690512312219E1  -7.726436088611985E1  -2.671389317105354E1  -4.118872188684020E1  
                        -3.230470465471628E1   3.168329044216118E1  -3.167698951664946E1   1.082110048383176E2  -2.669060088631562E1  -3.820968503990081E1  -1.256668562153084E1   1.465583851230891E2  
                        
 4.526879879879880E10   -1.560201787891347E1  -1.340307925826025E2  -2.651018717286609E1  -1.496479542559574E2  -3.244681336750417E1  -5.964715287920608E1  -3.235665929921662E1  -7.879257670426483E1  
                        -2.654189515311381E1  -1.435460380673850E2  -1.228771306120684E1   2.065196853890049E1  -3.039393511622978E1  -2.143599971629159E1  -3.088863041751521E1   6.633243449278800E1  
                        -3.266882451670497E1  -5.947062505338546E1  -3.044573872287432E1  -2.730348300778218E1  -1.250955704548986E1  -1.702489215683784E2  -2.677796158420923E1  -1.509470087266208E2  
                        -3.213610715562564E1  -7.671359703059152E1  -3.078231911649686E1   6.513154015936773E1  -2.667442153714208E1  -1.482262781769350E2  -1.340524921010285E1   1.089949422939399E2  
                        
 4.533885885885886E10   -1.181605964569362E1   1.464610753523714E2  -2.640098194718566E1   1.023061583114050E2  -3.286592830035184E1   1.772552850232182E2  -3.180964194888929E1   1.753335727426230E2  
                        -2.633420002988675E1   1.068937013118705E2  -1.270721074069830E1  -1.484708565603054E1  -3.021992393829652E1  -1.298526301435792E2  -3.014524255061346E1   1.594932396291413E1  
                        -3.302526331092198E1   1.754873216815184E2  -3.003394173074278E1  -1.338323491268631E2  -1.200799807794486E1   1.318179088731010E2  -2.648323558432240E1   1.033994736338510E2  
                        -3.185659661776968E1   1.789052117208400E2  -2.997332225274433E1   1.519676533094060E1  -2.678421553015169E1   1.079483118292110E2  -1.606021031005937E1   5.309715659866262E1  
                        
 4.540891891891892E10   -1.777713884791090E1   7.154525905566833E1  -2.621867260078363E1  -6.863185843218616  -3.356599395204813E1   5.563777102193462E1  -3.113088606423770E1   6.393678002201806E1  
                        -2.580982443514803E1  -3.394461292305399  -1.347642171273895E1  -4.858752134574109E1  -2.964768295354716E1   1.192773499972233E2  -3.056830255714823E1  -3.473407879353369E1  
                        -3.389689302601455E1   5.710559319962176E1  -2.988833673334169E1   1.142844881474948E2  -2.927184932323560E1   9.663655280459216E1  -2.604750060258359E1  -6.617522114758514  
                        -3.112024508515160E1   6.811750966510914E1  -3.061762771704059E1  -3.477834097067296E1  -2.601779602986767E1  -2.857610342585250  -1.480548767212744E1   1.306474315277712E1  
                        
 4.547897897897897E10   -1.792486176179247E1  -1.260584749185279E2  -2.614426785533719E1  -1.196448462241496E2  -3.506432546023702E1  -5.956780012740224E1  -3.067431488416297E1  -4.975670540753465E1  
                        -2.598924538320573E1  -1.149030567049621E2  -1.316116476712553E1  -8.848119142983212E1  -3.009673943244787E1   4.687411420264556  -3.123240099511570E1  -7.790635787490194E1  
                        -3.492121284258359E1  -5.850325167232568E1  -3.023301235983545E1   1.613736657995315  -1.392068590364289E1  -1.728749494662451E2  -2.580653822533258E1  -1.184837797728510E2  
                        -3.096948527670029E1  -4.538637931603183E1  -3.151923528018175E1  -7.927906096242171E1  -2.611082745866539E1  -1.156674789497601E2  -1.590444857778208E1  -1.164053047768214E1  
                        
 4.554903903903903E10   -1.257754257146796E1   1.538591618158140E2  -2.653918789836654E1   1.292739964340175E2  -3.499744700223204E1  -1.658460673008580E2  -3.115449551725573E1  -1.624578681138530E2  
                        -2.644495193045578E1   1.338343174904592E2  -1.242381264109796E1  -1.279244283660416E2  -3.066124878894258E1  -1.000874496777015E2  -3.203214796994543E1  -1.193209838091342E2  
                        -3.481619562042273E1  -1.669644260620861E2  -3.065263666137627E1  -1.056644757829015E2  -1.174243781011910E1   1.301598855987620E2  -2.607906384010189E1   1.295922976634549E2  
                        -3.125288160897876E1  -1.591883088586507E2  -3.197698043467062E1  -1.198448948844872E2  -2.637389208533696E1   1.359116932359186E2  -1.379250738469671E1  -6.445541199406672E1  
                        
 4.561909909909910E10   -1.473818392766789E1   7.497631200518144E1  -2.677541395958440E1   2.363162166042008E1  -3.387271500531128E1   7.796414072173587E1  -3.180405855654050E1   8.952965383610811E1  
                        -2.669154211214638E1   2.598632516359611E1  -1.237841195096872E1  -1.754057438881861E2  -3.033750902390734E1   1.515536152269304E2  -3.156057278916845E1  -1.597079540278270E2  
                        -3.349996310890562E1   7.736443773764862E1  -3.055950676246036E1   1.483038877376942E2  -1.958860769352460E1   8.077132754851373E1  -2.610499065803959E1   2.199290109017137E1  
                        -3.158807859466439E1   9.091658497200928E1  -3.171429800946840E1  -1.603846173115188E2  -2.600147383310266E1   2.362244666461834E1  -1.166537331342192E1  -9.668521355348646E1  
                        
 4.568915915915916E10   -2.036570789329671E1  -8.224624211096020E1  -2.660450255104418E1  -8.544293411592760E1  -3.335850390743111E1  -4.655314710573504E1  -3.181903496318265E1  -1.930279317058187E1  
                        -2.670844681205327E1  -8.035766994282287E1  -1.236540418699471E1   1.394697167708520E2  -3.051570611209855E1   4.252412710018117E1  -3.158571645947685E1   1.560786283279653E2  
                        -3.264704376473788E1  -4.587085878588822E1  -3.059825475570930E1   3.881817373905282E1  -1.637975887778917E1  -1.753444117329212E2  -2.634881354216623E1  -8.759129041628823E1  
                        -3.182534183495799E1  -1.499878337302128E1  -3.105683473491787E1   1.551361119618871E2  -2.664897419750586E1  -8.410747600355357E1  -1.372624353804447E1  -1.403868874394415E2  
                        
 4.575921921921922E10   -1.383622329595963E1   1.600480770497727E2  -2.665535943165897E1   1.663792569864422E2  -3.322843669792657E1  -1.703241725422747E2  -3.198693914716213E1  -1.269434860172685E2  
                        -2.651379758456042E1   1.704305036048894E2  -1.428816752497566E1   9.706093854350458E1  -3.070840390260250E1  -6.552614283100502E1  -3.089003224157000E1   1.108728836978400E2  
                        -3.337037633868570E1  -1.725320893789256E2  -3.059018348522720E1  -6.977728347623319E1  -1.203678326413063E1   1.269102995261482E2  -2.669959705454837E1   1.642698294921930E2  
                        -3.200703367489268E1  -1.239570595521283E2  -3.081208266926224E1   1.096630859860224E2  -2.667194718924050E1   1.677612123597914E2  -1.352679287757530E1   1.683751246151220E2  
                        
 4.582927927927927E10   -1.379165407414245E1   7.437049073954236E1  -2.654255358988679E1   6.038452648276076E1  -3.411318524215300E1   6.889897775280939E1  -3.198126265858407E1   1.274368424519941E2  
                        -2.650691950812728E1   6.434173302473100E1  -1.597930184416719E1   4.993037932261949E1  -3.022424558855651E1  -1.738316928696584E2  -3.109857939573197E1   6.096944808025908E1  
                        -3.413312017402949E1   6.749467921504990E1  -3.023558856352681E1  -1.767268887939840E2  -1.636171655892987E1   7.938132449348102E1  -2.658290621232933E1   5.815671786076479E1  
                        -3.171990379313744E1   1.307968738557349E2  -3.092885937698835E1   6.011118022638601E1  -2.668944760421399E1   6.201108913068349E1  -1.593349664489495E1   1.433560670943578E2  
                        
 4.589933933933933E10   -2.113849747496123E1  -3.241482718689869E1  -2.591735949390629E1  -4.954275000748241E1  -3.500244936081126E1  -5.126802988564292E1  -3.117270127433657E1   1.863308126942579E1  
                        -2.568411095124341E1  -4.534541435360914E1  -1.657510757615090E1   1.244699076928129E1  -2.976940867132380E1   7.425662065383189E1  -3.192463816982305E1   1.694484511124905E1  
                        -3.508979222306023E1  -5.256629650351550E1  -3.002748193784244E1   7.118167643074953E1  -2.165433295799601E1   1.642918907167131E2  -2.602350925102062E1  -5.139981938359747E1  
                        -3.109393377988650E1   1.993543485402124E1  -3.194126076800661E1   1.494182904796056E1  -2.589521055227518E1  -4.795071410715485E1  -2.043254205218703E1   9.617688037118698E1  
                        
 4.596939939939940E10   -1.750440199536231E1   1.686160008733259E2  -2.573571017487166E1  -1.628702149393517E2  -3.651093724487541E1  -1.649389742235557E2  -3.088963689958042E1  -9.484275542205906E1  
                        -2.570160311348043E1  -1.572233441462841E2  -1.645449080238496E1  -2.962126560022373E1  -3.026074223193500E1  -3.642718014636305E1  -3.226161244232004E1  -2.521092146414375E1  
                        -3.656582692647030E1  -1.645951984368049E2  -3.038279350827726E1  -4.230798674512096E1  -1.320695730463751E1   1.228933521351022E2  -2.603928518213107E1  -1.621388209278937E2  
                        -3.087268217589615E1  -9.137605946568884E1  -3.277342861725264E1  -2.662114507252119E1  -2.614091787346305E1  -1.589218512576786E2  -1.827928178844084E1   6.563123985372508E1  
                        
 4.603945945945946E10   -1.468035652803525E1   7.519816955546494E1  -2.594779739006150E1   8.712557554121162E1  -3.726671103890934E1   8.620626707628105E1  -3.089804366356175E1   1.548713963830661E2  
                        -2.586531289593336E1   9.120068143209738E1  -1.379272158518162E1  -6.836242232792871E1  -3.068850968883507E1  -1.441899246996221E2  -3.223617789775773E1  -5.976688311523127E1  
                        -3.671806780601180E1   8.781860481978333E1  -3.051060237925275E1  -1.488674890618367E2  -1.380853990352172E1   7.117873874840117E1  -2.582759274949180E1   9.038399674633484E1  
                        -3.083294259902386E1   1.565661473179030E2  -3.206454622334356E1  -5.983549827557518E1  -2.589547086809511E1   9.382027093390428E1  -1.910777234559745E1   3.444471755988964E1  
                        
 4.610951951951952E10   -1.651551280709766E1  -1.287100984711821E1  -2.598378372290185E1  -2.101847613817468E1  -3.588798936515450E1  -2.829578140698439E1  -3.090686495457500E1   4.338468101483706E1  
                        -2.606688809555865E1  -1.698945984863196E1  -1.280245575937051E1  -1.077178518161440E2  -3.032662107390777E1   1.071919847145748E2  -3.089898060580088E1  -1.054281872386277E2  
                        -3.606816546009441E1  -2.660610119394702E1  -3.049662562796063E1   1.023272484158864E2  -2.929559941902299E1   9.378874477642826E1  -2.553207796103211E1  -2.271772283880314E1  
                        -3.080521162805951E1   4.624066587011763E1  -3.088806640943639E1  -1.061138878938035E2  -2.539627996274953E1  -1.901122470936189E1  -1.632862295955777E1  -3.228657984811602E1  
                        
 4.617957957957958E10   -2.399768984061850E1  -1.460622100483237E2  -2.604813069072666E1  -1.306067937858960E2  -3.612072682624611E1  -1.497100423151728E2  -3.089549326438385E1  -6.888783852695417E1  
                        -2.596564551023469E1  -1.268756785684475E2  -1.308302809917851E1  -1.483774893964513E2  -3.074454633984575E1  -4.728897892222483  -3.055814847057748E1  -1.526328478252931E2  
                        -3.604624443506906E1  -1.513815661399744E2  -3.068119180607017E1  -8.788712670329536  -1.533982841773817E1   1.199439154530336E2  -2.582042561791729E1  -1.340046188169314E2  
                        -3.101772856496285E1  -6.505597176115212E1  -3.057976029194715E1  -1.532399048131089E2  -2.576303363719577E1  -1.305733306540234E2  -1.460396081905559E1  -6.397259435061828E1  
                        
 4.624963963963963E10   -1.674747339363279E1   7.013459776058500E1  -2.610335405103903E1   1.198024044186410E2  -3.725604980473237E1   8.968490814173224E1  -3.122941646414650E1  -1.790261606670475E2  
                        -2.614772533822590E1   1.234897105631900E2  -1.375751208864969E1   1.739554452628040E2  -3.081997536528783E1  -1.125132749498996E2  -3.041193546896148E1   1.571571308103774E2  
                        -3.665575971910737E1   8.850068993176699E1  -3.093463438043493E1  -1.153675943090059E2  -1.368245269142569E1   6.508910484713061E1  -2.598205142689796E1   1.172888520093128E2  
                        -3.099609720180713E1  -1.755620087274635E2  -3.036571442776199E1   1.557345583523050E2  -2.620961467251800E1   1.186970406217240E2  -1.668218722465400E1  -1.097060871752363E2  
                        
 4.631969969969970E10   -1.515087348044002E1  -6.759948865968429  -2.614538176627638E1   1.163168576087597E1  -3.808523324155607E1  -2.389451635308775E1  -3.113716422203394E1   7.143384945002492E1  
                        -2.615392114361500E1   1.601829001827639E1  -1.583567217462143E1   1.446686890768646E2  -3.059138827099627E1   1.409244149082638E2  -3.114503893665448E1   1.098409968663082E2  
                        -3.777225826963009E1  -2.592847736776470E1  -3.042923459512719E1   1.359136795015462E2  -2.118145744994626E1   2.653659272234991E1  -2.623496017775555E1   6.800892681722643  
                        -3.116618645395219E1   7.540735705500852E1  -3.132388611254047E1   1.106325485996409E2  -2.583494572737433E1   1.306782545684885E1  -1.591509772276255E1  -1.456204121828716E2  
                        
 4.638975975975976E10   -2.140851791839561E1  -7.869543620647242E1  -2.592856073805750E1  -9.702065718157017E1  -3.880346324826478E1  -1.404859506607778E2  -3.122754538324222E1  -3.860971473010078E1  
                        -2.587915414475627E1  -9.416078536934347E1  -1.774048821950523E1   1.105687399477566E2  -3.059097623521811E1   2.811046778890700E1  -3.214679788425157E1   6.612041813148356E1  
                        -3.941290552391690E1  -1.417937959089860E2  -3.067214191480414E1   2.482145464367629E1  -1.996305096905479E1   1.126951551886132E2  -2.615379513471630E1  -1.025986813512926E2  
                        -3.106299205250393E1  -3.512896527702902E1  -3.203317856893239E1   6.538815454389206E1  -2.622653493073111E1  -9.935425913441739E1  -1.756264654818151E1  -1.530566173770688E2  
                        
 4.645981981981982E10   -2.297992458600464E1   7.933177702167340E1  -2.562863494167717E1   1.517387147020377E2  -4.015326872548094E1   1.132284940793950E2  -3.106804923193256E1  -1.489482243804232E2  
                        -2.575815803373656E1   1.561787251571020E2  -1.801093302963560E1   8.177089280482478E1  -3.128621714899967E1  -8.152767654700242E1  -3.263848826104912E1   2.906424625303796E1  
                        -3.997244605529344E1   1.137358108306680E2  -3.116330838630723E1  -8.455588584117703E1  -1.467985954028753E1   5.806177731228964E1  -2.636122834446612E1   1.495571511438610E2  
                        -3.123030465480168E1  -1.462618598907438E2  -3.260476917130455E1   2.882097945824507E1  -2.657008420532397E1   1.510875792396444E2  -1.917434141266044E1   1.730811186656832E2  
                        
 4.652987987987988E10   -1.520800696207851E1   3.551178885880909  -2.576535319468621E1   4.212708982181147E1  -3.964088178257470E1   1.086808819509410E1  -3.150802171276421E1   1.005209629817237E2  
                        -2.574221557606009E1   4.555564108026737E1  -1.798680412071266E1   4.062614760884941E1  -3.107027181302750E1   1.713739700298513E2  -3.194050113452769E1  -6.041499097595507  
                        -3.960728986573385E1   7.151457849261115  -3.119963785140732E1   1.679165542413158E2  -1.724666822872799E1   4.624973354539557  -2.631244336276197E1   4.253374247440271E1  
                        -3.119451412812103E1   1.044260483809434E2  -3.175877279797875E1  -7.975196909100093  -2.635615073576177E1   4.491310859318388E1  -1.619605343533619E1   1.378604913187883E2  
                        
 4.659993993993993E10   -1.669682739935006E1  -6.257463837413321E1  -2.569579070305491E1  -6.793102910552399E1  -3.815245502825960E1  -9.990607224282667E1  -3.112032638724583E1  -9.509775963332556  
                        -2.560926636901545E1  -6.373442181492011E1  -1.705047526001953E1  -2.349653880835591E1  -3.105742609500653E1   6.243345483159489E1  -3.075329125441877E1  -5.000003178917717E1  
                        -3.841022980281858E1  -1.007132084575706E2  -3.096016053688089E1   5.510775709290005E1  -2.971982590168737E1   1.343167164662893E2  -2.607948268921584E1  -6.794439010154675E1  
                        -3.114630318471924E1  -5.220259503469654  -3.063163489409999E1  -5.131177836131579E1  -2.615578535141863E1  -6.477213601386764E1  -1.693035339804471E1   1.077807832466463E2  
                        
 4.666999999999999E10   -3.284228244302201E1   1.630771774638572E2  -2.559367767471949E1  -1.792615355504112E2  -3.731170478396356E1   1.410109826044192E2  -3.113465152387300E1  -1.197255835664284E2  
                        -2.564159459987011E1  -1.750408220380055E2  -1.543229272035505E1  -7.063344166768364E1  -3.141811985140109E1  -4.737455725570106E1  -2.941913735838624E1  -9.809723388720617E1  
                        -3.695990340571127E1   1.387384518109990E2  -3.117113923032791E1  -5.322171544692473E1  -1.631799220814062E1   6.240098013652671E1  -2.594329863057014E1  -1.771334191883733E2  
                        -3.106830497255239E1  -1.170270054096322E2  -2.923452280311980E1  -9.872777361449838E1  -2.607488737084849E1  -1.760297138517692E2  -1.717050804100645E1   3.956185514896680E1  
                        
 4.674006006006006E10   -1.606713866564521E1   5.066260564376220  -2.564909240219322E1   7.164276400813162E1  -3.679245539147006E1   2.490104733138937E1  -3.115006983031357E1   1.286508456546600E2  
                        -2.569669341214064E1   7.568814191671292E1  -1.457698091322466E1  -1.184976856211731E2  -3.126249144835193E1  -1.558417473975700E2  -2.884946033463948E1  -1.503220423586304E2  
                        -3.671675191512924E1   2.379982850151223E1  -3.138672541047610E1  -1.600373093152412E2  -1.610818879910523E1  -8.564740066178645  -2.581517742291507E1   7.279155357993658E1  
                        -3.098833097793797E1   1.306061949003197E2  -2.903509509685625E1  -1.495705798316840E2  -2.578158918778572E1   7.539243826679287E1  -1.676847037201308E1  -2.082287949223371  
                        
 4.681012012012012E10   -1.458595276429441E1  -6.015405155003347E1  -2.580163925023912E1  -3.794382650033401E1  -3.649264636738815E1  -9.584361664225158E1  -3.108768989300702E1   1.717807280592163E1  
                        -2.592412037849193E1  -3.466577741516750E1  -1.356790380871615E1  -1.498092643861501E2  -3.126997290071370E1   9.047027291120844E1  -2.900396529962861E1   1.597783017326509E2  
                        -3.626841060861567E1  -9.385135124650120E1  -3.129945957544801E1   8.926559445456778E1  -2.819448644377784E1  -9.937299351080691E1  -2.570784509207130E1  -3.801213256741796E1  
                        -3.103526396078148E1   2.125282079923570E1  -2.925398335642345E1   1.580761457722486E2  -2.586148224834063E1  -3.585117305275427E1  -1.920409290960406E1  -5.801805756318875E1  
                        
 4.688018018018018E10   -2.092746459585272E1  -1.510492621318002E2  -2.584170711166014E1  -1.482951093243232E2  -3.640154002742676E1   1.496949507384533E2  -3.129361658535650E1  -9.436190868976735E1  
                        -2.591873686342815E1  -1.446545545054319E2  -1.390912134026972E1  -1.698397581555086E2  -3.138047829585395E1  -1.738345060541539E1  -3.000181512702891E1   1.087451478982251E2  
                        -3.674288718151184E1   1.514904269614502E2  -3.148608140161878E1  -2.146690313532843E1  -1.968472529268048E1   6.124674193636755E1  -2.594477957716094E1  -1.511782834030660E2  
                        -3.120797367624557E1  -9.018352962195509E1  -3.008054312412876E1   1.096327380517152E2  -2.618058731361212E1  -1.484100432446419E2  -1.639190751224929E1  -9.577112935031553E1  
                        
 4.695024024024023E10   -2.098657680723883E1   3.153316294429486E1  -2.617192510711750E1   1.007478052087085E2  -3.632423676029117E1   3.806601367353071E1  -3.153556441333203E1   1.528027038060992E2  
                        -2.600671066667676E1   1.056239654542665E2  -1.385014804342822E1   1.678324550779273E2  -3.194788135895580E1  -1.237981182443392E2  -3.178546909282010E1   6.686119235807296E1  
                        -3.614112413028423E1   3.703416648255303E1  -3.206266638266800E1  -1.287117569315163E2  -1.551046496824699E1  -1.687057910355522E1  -2.637411525361923E1   9.892504070305752E1  
                        -3.144987881447007E1   1.571919842282114E2  -3.170263953863605E1   6.665579040059311E1  -2.656711175074090E1   1.048073605586252E2  -1.582303399937219E1  -1.052628746494900E2  
                        
 4.702030030030029E10   -1.489839953169327E1  -6.337152175100948E1  -2.634264609027520E1  -6.417741668659972  -3.561114425630645E1  -7.538455638512836E1  -3.180980806112540E1   4.374132733444548E1  
                        -2.607612190438558E1  -4.038874782893761  -1.290913893345920E1   1.401574329949689E2  -3.205059252597655E1   1.283376257278617E2  -3.211170809230753E1   3.353949026070495E1  
                        -3.552059815406058E1  -7.517203774793103E1  -3.218449573353157E1   1.231177968413717E2  -1.924855403493910E1  -9.090625832965327E1  -2.666973526956734E1  -8.343796830823937  
                        -3.186798617715995E1   4.829256841989886E1  -3.208920709188294E1   3.325235607384735E1  -2.662205615054617E1  -5.452642368039117  -1.512178949026849E1  -1.460224965004465E2  
                        
 4.709036036036036E10   -1.641951947044936E1  -1.518061564020251E2  -2.636834657840095E1  -1.142142656960773E2  -3.448871982527211E1   1.674903464294969E2  -3.213954192602958E1  -6.466191745173497E1  
                        -2.621614062701293E1  -1.105754819495987E2  -1.440015242321637E1   1.006742918717293E2  -3.208227744737518E1   1.773516110518449E1  -3.100255243350249E1   7.937089445305677E-1  
                        -3.457717934282562E1   1.681146698828360E2  -3.228535688530837E1   1.499332931343472E1  -2.364131416451311E1   8.921199982894453E1  -2.701397974151598E1  -1.160880855208959E2  
                        -3.199723015102184E1  -6.153370022738595E1  -3.102485093921290E1   1.882612039516395  -2.679666189284541E1  -1.153497201501603E2  -1.250691602861105E1   1.745914115515461E2  
                        
 4.716042042042042E10   -2.044204315939775E1   7.526708274055115E1  -2.618461334854214E1   1.366553027619536E2  -3.346493691119689E1   4.850824731831633E1  -3.229152812400889E1  -1.748155209079172E2  
                        -2.607760044159478E1   1.398533119411828E2  -1.569032588655861E1   4.025318584288244E1  -3.235910785527919E1  -8.753148845460956E1  -2.883050674571746E1  -4.355064891417318E1  
                        -3.370513158629978E1   4.528298062676234E1  -3.215156546947094E1  -9.454228671285621E1  -1.722690737851682E1  -1.925536806005731E1  -2.689678157535621E1   1.347231718812272E2  
                        -3.207945255137879E1  -1.695179444828155E2  -2.904257023544600E1  -4.574511077874453E1  -2.683583735674680E1   1.408121099450054E2  -1.382231051226063E1   1.408936951244587E2  
                        
 4.723048048048048E10   -1.622651719197611E1  -6.938999059964054E1  -2.598403307999051E1   2.615760350035601E1  -3.273839998891060E1  -7.237387950667954E1  -3.214465404493333E1   7.864478355432723E1  
                        -2.604572083287765E1   3.037830887614978E1  -1.700662913704353E1  -1.941863349253116E1  -3.209505533931083E1   1.652341552138789E2  -2.756056612453736E1  -9.405382113771681E1  
                        -3.282134095488848E1  -7.439104127829455E1  -3.215714841206727E1   1.593191126575154E2  -1.815910506511673E1  -1.024019565076211E2  -2.673378910838335E1   2.909206635998013E1  
                        -3.212413108647302E1   7.974708589032863E1  -2.750468953631127E1  -9.555756972705764E1  -2.641995899132812E1   3.106466731848418E1  -1.484689228503689E1   8.294809259917304E1  
                        
 4.730054054054054E10   -1.459621342384466E1  -1.510646335832030E2  -2.595980013723879E1  -8.229803846713412E1  -3.259370914667083E1   1.656145216613306E2  -3.175984548556284E1  -3.080952081839181E1  
                        -2.606421109736785E1  -7.872717277977606E1  -1.699439895135641E1  -7.161254940469819E1  -3.176613180157737E1   5.313340189402535E1  -2.709472856047503E1  -1.478763534968232E2  
                        -3.258248450159709E1   1.629142501638251E2  -3.180882978854562E1   5.125761238537722E1  -2.665548930272393E1   1.286975071769144E2  -2.630705783343028E1  -8.012973323833538E1  
                        -3.198431829984097E1  -2.760523601112783E1  -2.694734253047188E1  -1.499003664282419E2  -2.606511377394216E1  -7.526795531697398E1  -1.570374225397793E1   5.094492667581690E1  
                        
 4.737060060060059E10   -1.774081599563824E1   1.152282775028466E2  -2.564800013143081E1   1.679563383744178E2  -3.333229518675337E1   4.232895245480026E1  -3.143411880948897E1  -1.409927228177282E2  
                        -2.572262303313135E1   1.719768633154365E2  -1.564480882953842E1  -1.050791828447482E2  -3.188803321471950E1  -5.761761177069616E1  -2.749590139859244E1   1.550530527024105E2  
                        -3.286397312039812E1   4.349962304094704E1  -3.216978923242291E1  -6.131931101410943E1  -2.096190668268194E1  -5.407083977763485  -2.593791841300656E1   1.665209750546630E2  
                        -3.167807665551253E1  -1.392586971059070E2  -2.737443361683954E1   1.547175045364840E2  -2.577940897304471E1   1.714099549841613E2  -2.061945655718210E1  -6.085680360720107  
                        
 4.744066066066066E10   -2.380663465062302E1  -4.078123052962356E1  -2.548757443977565E1   5.544594983906778E1  -3.346978150719957E1  -7.426364892593081E1  -3.162616658707620E1   1.060431825560344E2  
                        -2.590265662245544E1   5.959211005585092E1  -1.483489788572954E1  -1.298604073596045E2  -3.241253552217227E1  -1.658746695384634E2  -2.923377889425959E1   1.043862527810062E2  
                        -3.377259808849198E1  -7.349198502914159E1  -3.235574730076564E1  -1.725551330026840E2  -1.813643415383475E1  -1.003141804031750E2  -2.591123849538632E1   5.817129664461933E1  
                        -3.185214252730015E1   1.104563643909821E2  -2.919432383468355E1   1.030977764762751E2  -2.613080154510346E1   6.165589796723739E1  -1.646896246397864E1  -4.357027213258888E1  
                        
 4.751072072072072E10   -1.469656657487134E1  -1.572678945547103E2  -2.591228609674096E1  -5.597967690783028E1  -3.350969113519959E1   1.715329564610337E2  -3.208620311668673E1  -6.447615917966385  
                        -2.619596000232512E1  -5.300246482830561E1  -1.336588283530642E1  -1.635922636072245E2  -3.249333138070390E1   8.589963169697609E1  -3.125398910104448E1   6.658662276355696E1  
                        -3.342886940562064E1   1.721802004748943E2  -3.220778514765561E1   8.216180826922053E1  -1.833369555292281E1   1.623522581489276E2  -2.602848847581778E1  -5.388400587959398E1  
                        -3.207672607278895E1  -2.357374215635683  -3.130497451498649E1   6.648656846653142E1  -2.610323896569192E1  -5.118188146910875E1  -1.680965589977826E1  -7.522325884492395E1  
                        
 4.758078078078078E10   -1.497347692574209E1   1.289108340680273E2  -2.631367271752582E1  -1.638409150988740E2  -3.241887398164508E1   5.690995538367887E1  -3.193839075362848E1  -1.159900223744027E2  
                        -2.620042618638566E1  -1.610453642539446E2  -1.218401804609946E1   1.636000258471152E2  -3.249000863218922E1  -2.575242688354849E1  -3.107201819493323E1   3.846017517687120E1  
                        -3.276228266984155E1   5.668518174805833E1  -3.265385441873058E1  -2.798608181559367E1  -2.678460395820001E1   5.016419845490931E1  -2.628838502801277E1  -1.672144190383634E2  
                        -3.198305330304499E1  -1.114630027632424E2  -3.115069532245027E1   3.952212409550636E1  -2.631127531110133E1  -1.596897959821574E2  -1.426004847844938E1  -1.282558126600483E2  
                        
 4.765084084084084E10   -2.575041106243531E1   3.321155528248522E1  -2.630961579857133E1   8.684379661749361E1  -3.194187239871343E1  -6.263547971512381E1  -3.241662919848293E1   1.308671623347601E2  
                        -2.648213596724293E1   9.142429452236753E1  -1.301038610574624E1   1.294013269374842E2  -3.272416823862898E1  -1.322508778422215E2  -2.893131509409173E1   1.192696189128312  
                        -3.164944332421839E1  -6.249664548376493E1  -3.291742727847729E1  -1.370935813400723E2  -2.026778566960333E1  -1.128727215233312E2  -2.666159005448371E1   8.520823577765475E1  
                        -3.225222488270070E1   1.380664332197490E2  -2.900937815604560E1   1.747019197659109  -2.638102487271986E1   8.873275665336303E1  -1.196469587633832E1  -1.581564823922933E2  
                        
 4.772090090090089E10   -1.769046233672908E1  -1.670389217742154E2  -2.650391758853171E1  -2.229851115898278E1  -3.137808303224778E1   1.718418753864228E2  -3.234710198174302E1   2.354573115267369E1  
                        -2.646773206085865E1  -1.768376663873958E1  -1.426147362027014E1   9.009350203286591E1  -3.306343110758516E1   1.217796280056134E2  -2.704030601602539E1  -4.643256728629083E1  
                        -3.164021578087205E1   1.734466960348744E2  -3.294428310582366E1   1.181090501639259E2  -1.916271519038407E1   1.739626549087743E2  -2.684585236115850E1  -2.188950846601588E1  
                        -3.260999442574227E1   2.652001703727903E1  -2.702055443242557E1  -4.813437215562574E1  -2.696563112692252E1  -1.664879306698187E1  -1.411065051065593E1   1.682828360746287E2  
                        
 4.779096096096096E10   -1.462536270941626E1   1.256926012416269E2  -2.619386458817222E1  -1.299071636862820E2  -3.201046466236437E1   4.993025484957224E1  -3.264493714157273E1  -8.746034474902817E1  
                        -2.631411732243938E1  -1.272994731068262E2  -1.795873410514631E1   6.132398207162787E1  -3.293131733067877E1   1.000579115438559E1  -2.589164819472615E1  -1.023211338649055E2  
                        -3.189285749263417E1   4.980239924472758E1  -3.273576553663121E1   7.542884453938862  -2.619725311653526E1   1.042356934931231E2  -2.697902562210093E1  -1.302334420952826E2  
                        -3.249189917879161E1  -8.360977513717630E1  -2.592947587259741E1  -1.027496428418307E2  -2.714026571656175E1  -1.277104291328416E2  -1.445993252606514E1   1.227649861157363E2  
                        
 4.786102102102102E10   -1.818474979686863E1   6.336987479728752E1  -2.603376384636473E1   1.210332873510450E2  -3.275243940156665E1  -7.148983639109665E1  -3.268766235757969E1   1.646389878644399E2  
                        -2.613246113851024E1   1.245061736446660E2  -2.412990997669126E1   2.526230294321711  -3.282710749330245E1  -9.863661030465165E1  -2.570327085763574E1  -1.572457197986227E2  
                        -3.224348698199521E1  -6.989897523217215E1  -3.278285104696067E1  -1.015060728740045E2  -2.661131773481395E1  -9.562947006094618E1  -2.697652382087845E1   1.226457960460867E2  
                        -3.229136761310780E1   1.662600645339381E2  -2.564257090973476E1  -1.590416419410457E2  -2.689995435571934E1   1.243101181745115E2  -1.565097949453974E1   1.060060440342290E2  
                        
 4.793108108108108E10   -2.996832123493429E1   1.715432403731838E2  -2.558349286244225E1   1.031678608409265E1  -3.339676902033726E1   1.683309048540171E2  -3.249731747624117E1   5.280238511744107E1  
                        -2.591698026419562E1   1.402912593785334E1  -2.161833877701589E1  -5.184988593074260E1  -3.252755409747534E1   1.543406765152081E2  -2.635470866888272E1   1.486203710525463E2  
                        -3.324927454343018E1   1.712974675433505E2  -3.261804051155580E1   1.520230644915738E2  -1.619675971362848E1  -1.772559416263280E2  -2.671012691943978E1   1.278024813031430E1  
                        -3.242717209165879E1   5.696264273632358E1  -2.634638193169445E1   1.481007290721678E2  -2.652685839092947E1   1.454564323158263E1  -2.063373053189553E1   6.918381639526558E1  
                        
 4.800114114114114E10   -1.542378097364170E1   1.285902444390737E2  -2.587540213596990E1  -1.010972881682294E2  -3.380526742768222E1   6.101527758531985E1  -3.259672411567991E1  -5.717953296200944E1  
                        -2.587662884463737E1  -9.737008912822874E1  -1.932578460401451E1  -9.213196603148252E1  -3.236913498140591E1   4.375126660189442E1  -2.805403047390383E1   9.841365110319089E1  
                        -3.348962107156181E1   5.989420269998981E1  -3.247444843300414E1   4.036992521512762E1  -1.827788770822161E1   1.189092649607920E2  -2.640015289509816E1  -9.805889285755880E1  
                        -3.213606165790176E1  -5.370132146854319E1  -2.809664307237060E1   9.741937538037732E1  -2.652009948441645E1  -9.411798454054754E1  -1.859747866273277E1   1.877821205055013E1  
                        
 4.807120120120120E10   -1.545319155979582E1   6.968242005158166E1  -2.590042416433042E1   1.479221593883815E2  -3.310508566329665E1  -5.046204430520503E1  -3.267588133612478E1  -1.670933157649785E2  
                        -2.593761064877941E1   1.520365678192008E2  -1.525570266246720E1  -1.306033331711460E2  -3.238157704107594E1  -6.494230642082323E1  -2.952630912446204E1   5.963411413568806E1  
                        -3.296864555655166E1  -5.193793141595720E1  -3.263808804039451E1  -7.030045970561190E1  -3.153092483611408E1  -1.726776906252548E1  -2.609392037564945E1   1.511868971303398E2  
                        -3.259755455174296E1  -1.644143065296616E2  -2.936277132798416E1   5.726167366759534E1  -2.609337023855826E1   1.548178447812828E2  -1.920955254972988E1  -1.890801557945004  
                        
 4.814126126126125E10   -2.541274897718171E1   2.785867894888385E1  -2.581966057328192E1   3.614863182177420E1  -3.218422624525184E1  -1.710937809523760E2  -3.209016192669206E1   8.096444694818700E1  
                        -2.594480372167382E1   4.081909060744759E1  -1.363244045677090E1  -1.612048169698387E2  -3.364374598345901E1  -1.744728177296538E2  -2.949508296130507E1   2.585044130164176E1  
                        -3.215573158049298E1  -1.721342394019187E2  -3.287998206747952E1   1.788264138990478E2  -1.825465890505330E1   1.751139159519071E2  -2.616700166716121E1   3.968882362040561E1  
                        -3.233165557312177E1   8.462150773584025E1  -2.959460648484129E1   2.427092550352035E1  -2.629908198474717E1   4.316387644648869E1  -1.786256292719028E1  -7.356599433649437E1  
                        
 4.821132132132132E10   -1.941787896285647E1   1.078325208583020E2  -2.624361373323435E1  -7.507867855211796E1  -3.175175377064837E1   6.461320044237387E1  -3.232240385690608E1  -3.086653596631621E1  
                        -2.614930908633820E1  -7.071992608700879E1  -1.356857304861930E1   1.687980715445848E2  -3.338701482958895E1   7.750783040859982E1  -2.796719427022778E1  -1.474980696731959E1  
                        -3.158779625041274E1   6.478425961930903E1  -3.310592517191880E1   7.164225704518562E1  -1.687693672672097E1   1.192077674670171E2  -2.630003574351319E1  -7.164292812622091E1  
                        -3.237990361913487E1  -2.839271269272820E1  -2.817293038970798E1  -1.517620555355848E1  -2.669323557326414E1  -6.785079200495288E1  -1.388178288886824E1  -1.027483228838424E2  
                        
 4.828138138138138E10   -1.509983710858973E1   5.603526221834328E1  -2.668491652427916E1   1.752091164882643E2  -3.204564956085834E1  -5.901242907711445E1  -3.259055351535411E1  -1.442399934237257E2  
                        -2.647519971009448E1   1.797589013791946E2  -1.427411349918550E1   1.406615193251048E2  -3.330681613586236E1  -3.284894637979409E1  -2.666146149007572E1  -6.322067313561949E1  
                        -3.198558564981492E1  -5.959818701955788E1  -3.328541837902618E1  -3.766538985434458E1  -2.209978665499463E1   4.492024013773090E1  -2.656471638369547E1   1.780458488158815E2  
                        -3.279126712883357E1  -1.389080952991368E2  -2.676060854696148E1  -6.490033642830913E1  -2.641616918811713E1  -1.792736216849657E2  -1.576299639263322E1  -1.418989637958835E2  
                        
 4.835144144144144E10   -1.646048531996372E1   7.630938819314118  -2.678069982616514E1   6.702476641695964E1  -3.266544125597259E1  -1.774311570566210E2  -3.301048487276984E1   1.044583464257075E2  
                        -2.677718989902823E1   7.128027002943628E1  -1.599396094556625E1   1.178414860841424E2  -3.289381723685575E1  -1.410790569595246E2  -2.599664518217600E1  -1.155488414549226E2  
                        -3.271818276461343E1  -1.798932080233026E2  -3.340653019365658E1  -1.453831724910498E2  -2.333402714483137E1  -1.703956835162942E2  -2.696019255354628E1   6.788155024129080E1  
                        -3.314091026731950E1   1.083993790561295E2  -2.619090786192366E1  -1.171047080640358E2  -2.674346368812742E1   7.041595949413717E1  -1.361210221406720E1   1.757337815313134E2  
                        
 4.842150150150150E10   -3.103128593254833E1   2.962521517419340E1  -2.677761556246620E1  -4.299645467615417E1  -3.376062485985320E1   6.682993795829216E1  -3.344625837005050E1  -5.802265958246665  
                        -2.683625867959565E1  -3.724039411561407E1  -1.699902659459702E1   9.005511942751569E1  -3.344441570578515E1   1.101829696832288E2  -2.600469174032590E1  -1.707529299699702E2  
                        -3.363013029003744E1   6.587914643912554E1  -3.325352088116257E1   1.075204532631370E2  -1.577906823455524E1   1.197683748937153E2  -2.721580500261350E1  -4.216867112248312E1  
                        -3.333489221909256E1  -2.474732756141177  -2.608750992585024E1  -1.710104886489170E2  -2.737514410107362E1  -3.705133897519674E1  -1.314590075875784E1   1.663808171032239E2  
                        
 4.849156156156155E10   -1.524058465182546E1   5.328861906373072E1  -2.705466121573826E1  -1.509435816472631E2  -3.375664480637516E1  -4.625224092061848E1  -3.383404898154325E1  -1.171374140066241E2  
                        -2.707860070871896E1  -1.483031931452545E2  -1.709838587889810E1   4.940463012418375E1  -3.346138374636906E1   2.288367753171309  -2.683359833452180E1   1.367030704173424E2  
                        -3.410066153421519E1  -4.832744565966344E1  -3.326325724158074E1  -3.684802380595197  -1.821709609981510E1   5.493749758733829E1  -2.754439146643605E1  -1.503537692059242E2  
                        -3.365842810999097E1  -1.148560384434185E2  -2.689458254334753E1   1.364259317564811E2  -2.741061111469851E1  -1.471977315149044E2  -1.537562217790400E1   1.339483611684927E2  
                        
 4.856162162162162E10   -1.350127230632881E1  -2.747644751859446  -2.679023666641092E1   1.011210007064690E2  -3.290438584591954E1  -1.591561966411657E2  -3.437744013805897E1   1.343575180654008E2  
                        -2.693981588200199E1   1.055300200407203E2  -1.718115538232852E1   7.938134529444091  -3.332744792537618E1  -1.083710589911853E2  -2.793770024079687E1   8.696627445579087E1  
                        -3.324589819960224E1  -1.618554494082935E2  -3.311215920163649E1  -1.112526108284797E2  -4.022025022054108E1  -1.352326874430459E2  -2.775306228529423E1   1.020555448205771E2  
                        -3.457120804855102E1   1.404791092321106E2  -2.793463573923744E1   8.589273153517759E1  -2.736472394511586E1   1.069319214711532E2  -1.338589939736524E1   9.291033697842481E1  
                        
 4.863168168168168E10   -1.975957442062475E1  -4.619984949287652E1  -2.671620166268635E1  -9.110572380900925  -3.214464755956872E1   8.156768451453482E1  -3.420383776479147E1   2.839036450283831E1  
                        -2.658125255975505E1  -4.686402272717352  -1.661414669449109E1  -4.859040287815062E1  -3.301350200491273E1   1.428628993819608E2  -2.950232278364924E1   4.456051506658672E1  
                        -3.223176380989431E1   8.191974487620078E1  -3.312114727415258E1   1.368268387467550E2  -1.724537727613003E1   1.094907230207368E2  -2.729755470692655E1  -5.142063504809270  
                        -3.442028999269637E1   3.194306626791958E1  -2.941661746465510E1   4.180924069810823E1  -2.729634266419820E1  -4.105340986889341  -1.391193884423735E1   6.382903990235969E1  
                        
 4.870174174174174E10   -2.113313472128176E1   3.320912059081303E1  -2.657272685212627E1  -1.215902425875639E2  -3.160690879889872E1  -4.228759810480833E1  -3.439986243387455E1  -7.949988880362876E1  
                        -2.652678903372404E1  -1.157843157961408E2  -1.543788969347255E1  -9.684570855950517E1  -3.301095337018168E1   3.380275177027676E1  -3.022081991568139E1   3.626085201121325  
                        -3.168589664924656E1  -4.243661438957757E1  -3.324077139647172E1   2.998569994121960E1  -1.706464491221716E1   5.657054209223448E1  -2.749671722200255E1  -1.148073276368537E2  
                        -3.413592368563698E1  -7.633470767571747E1  -3.016411773879042E1   3.447106624031319  -2.739649033252339E1  -1.109152444948384E2  -1.436085708171090E1  -1.868592475800985  
                        
 4.877180180180180E10   -1.414534517107832E1  -3.909782923832242  -2.670244060730715E1   1.270054927685316E2  -3.221685861967168E1  -1.671426120799846E2  -3.403567756660074E1   1.698071902806643E2  
                        -2.684163013100375E1   1.304323438839828E2  -1.428626058453417E1  -1.366221459469269E2  -3.329531650366449E1  -7.609001392760135E1  -3.001084344877384E1  -3.212671172494687E1  
                        -3.242509586741765E1  -1.684326633717269E2  -3.331065068951155E1  -8.181334291671723E1  -2.491679688227904E1  -4.689331787529647  -2.714818268031043E1   1.365973246867454E2  
                        -3.398749749076783E1   1.719217257021766E2  -2.992589661751828E1  -3.459589152390524E1  -2.705894443778573E1   1.372411105405929E2  -1.234056681509921E1  -4.254472545676781E1  
                        
 4.884186186186186E10   -1.445829205744088E1  -5.053781036516308E1  -2.717514716169638E1   1.630366175033181E1  -3.313217837173661E1   7.299503974278787E1  -3.409144209710463E1   5.747647995697780E1  
                        -2.711775638566752E1   2.096205923971043E1  -1.327305021144148E1  -1.751941595418450E2  -3.348090500490508E1   1.733897478442168E2  -2.880998157881505E1  -7.766824803727734E1  
                        -3.318452691529132E1   7.159254023882602E1  -3.360457504114812E1   1.691259971611965E2  -2.459893340881111E1   1.159434569319289E2  -2.686504434900477E1   2.291971016259027E1  
                        -3.398640818965937E1   6.252814181766993E1  -2.887280033639622E1  -7.859210433631660E1  -2.705806567837218E1   2.543091916936216E1  -1.360764712480455E1  -9.250403155170612E1  
                        
 4.891192192192192E10   -2.836575498147459E1  -3.369802779575243E1  -2.751477485769598E1  -9.426031256262509E1  -3.429346247364164E1  -4.212625726960403E1  -3.357874348855503E1  -5.368056840203975E1  
                        -2.726934074743312E1  -8.967636632683309E1  -1.242720799797917E1   1.572150112404719E2  -3.378155663207981E1   6.458259250324292E1  -2.846971841935090E1  -1.287172812529977E2  
                        -3.432451522182810E1  -4.211968890957126E1  -3.369154139656108E1   5.989287199805724E1  -1.637560901062439E1   6.415754327748644E1  -2.734447486937012E1  -8.945313688471777E1  
                        -3.364291225876995E1  -5.128634823629339E1  -2.855432712295663E1  -1.291771110558624E2  -2.710100945423104E1  -8.627833943660561E1  -1.137913131650686E1  -1.363135941358812E2  
                        
 4.898198198198198E10   -1.524652924180721E1  -8.747045934676068  -2.785475012287280E1   1.574161550509614E2  -3.409676956158268E1  -1.510474653304328E2  -3.398043861769046E1  -1.673591458814074E2  
                        -2.804398454574447E1   1.608291652410458E2  -1.196295268552630E1   1.236427898397853E2  -3.383988108235194E1  -4.684104707567417E1  -2.835921564931794E1  -1.798858977406421E2  
                        -3.455237736549248E1  -1.536890412491804E2  -3.392557898160160E1  -4.977045627818494E1  -1.924808255695239E1  -1.544772361354308  -2.755507256034847E1   1.601102931755364E2  
                        -3.440610782410961E1  -1.655253825694304E2  -2.851667577479272E1  -1.795652406960291E2  -2.795048072748557E1   1.635503004723881E2  -1.082976176497942E1  -1.562271100181563E2  
                        
 4.905204204204204E10   -1.413987376878320E1  -5.933146324906971E1  -2.847650569462478E1   4.974914709070529E1  -3.396615696834688E1   9.188312917696240E1  -3.542358175721559E1   8.245616704682959E1  
                        -2.842498320445907E1   5.521219634080727E1  -1.208228299408281E1   9.025567102105319E1  -3.407467733439267E1  -1.541036267112772E2  -2.934502974748066E1   1.284237655744683E2  
                        -3.385665815948498E1   9.377197978735771E1  -3.412264013837190E1  -1.582425334317057E2  -3.944964932363133E1  -1.537502774353532E2  -2.829917550596245E1   5.031507040381991E1  
                        -3.483138134248536E1   8.673411957954160E1  -2.942472901403092E1   1.283608129862981E2  -2.818299708303175E1   5.516373219699771E1  -1.145436430849260E1   1.621832052953246E2  
                        
 4.912210210210210E10   -2.138292829617927E1  -9.952047498016133E1  -2.822280987764588E1  -5.547935812076739E1  -3.327274728842014E1  -2.548534793127956E1  -3.520057039921188E1  -2.320168680595333E1  
                        -2.840308823190275E1  -5.317937210861339E1  -1.249955239267050E1   5.111166291925090E1  -3.451548354126584E1   9.697780778521117E1  -3.030983647165759E1   8.180856893504119E1  
                        -3.332244004701474E1  -2.729233030657647E1  -3.443182022798218E1   9.406729626482527E1  -1.891070043289117E1   7.017961451865332E1  -2.882456804384636E1  -5.757638927135624E1  
                        -3.575156580959152E1  -2.226346330040752E1  -3.041152998652632E1   8.144912717641613E1  -2.888638930085043E1  -5.512784894001825E1  -9.644770125441271   1.254187068939243E2  
                        
 4.919216216216216E10   -2.178918067991254E1   5.681491702257171  -2.817658983807304E1  -1.644774142103198E2  -3.336842294165452E1  -1.478911355040229E2  -3.579936941816609E1  -1.339177728467693E2  
                        -2.819587702833553E1  -1.608628864533239E2  -1.299282833892227E1   2.562969933381651  -3.452137349269555E1  -8.114803154303138  -3.172498435038770E1   3.862941427673559E1  
                        -3.328902923306885E1  -1.475321073686697E2  -3.468347925975361E1  -1.252259366424737E1  -1.749682122180076E1   9.631443420006788  -2.912529637947911E1  -1.624104632135872E2  
                        -3.566376339303071E1  -1.296427962188058E2  -3.157302649510041E1   3.667155403497226E1  -2.910635818779000E1  -1.586385783334933E2  -1.071430749564349E1   9.246154147113751E1  
                        
 4.926222222222222E10   -1.476592489968919E1  -5.575054805420764E1  -2.799647586034266E1   8.687400719366688E1  -3.364918677941108E1   9.212562564401510E1  -3.599558528262839E1   1.211442150052702E2  
                        -2.843384470262880E1   8.836786007202746E1  -1.308893471683714E1  -4.915523931764910E1  -3.441498081578569E1  -1.184628522531923E2  -3.289852640840496E1  -6.772144705013525E-1  
                        -3.396095612605530E1   9.057652202644565E1  -3.455652844654257E1  -1.218355268297258E2  -1.994538874371675E1  -7.812596422019959E1  -2.911304941638548E1   9.169551860740835E1  
                        -3.585523612995660E1   1.214897738738614E2  -3.281831114189899E1  -3.002977319368918  -2.865671454059392E1   9.504272194486062E1  -1.074128899296150E1   3.733847644626157E1  
                        
 4.933228228228228E10   -1.618040887562545E1  -1.183519178060797E2  -2.784662980647719E1  -2.248005372764154E1  -3.496547726589992E1  -2.557052082428393E1  -3.577187218480353E1   1.673465496989483E1  
                        -2.811997641356781E1  -1.913355927877360E1  -1.271490468441288E1  -1.001989561946948E2  -3.452940649765612E1   1.325626025184272E2  -3.303107875061946E1  -3.979604899734127E1  
                        -3.480629301455940E1  -2.516425658967005E1  -3.435785361997362E1   1.307461834105781E2  -2.184495853046727E1   1.077891081614521E2  -2.843621228856284E1  -1.654429861181642E1  
                        -3.605423546815602E1   1.953325853775306E1  -3.281635308307079E1  -4.008908888939915E1  -2.872311532650208E1  -1.408210291424138E1  -1.093259947152226E1  -6.024690580955054E-1  
                        
 4.940234234234234E10   -2.969977463073415E1   1.744149766310547E1  -2.776809322554585E1  -1.360351375398700E2  -3.562172148415861E1  -1.361957728418343E2  -3.464120061989802E1  -9.305095306823989E1  
                        -2.777101602467002E1  -1.334794617727541E2  -1.185644296365450E1  -1.409363428389712E2  -3.442669489473192E1   2.267729810229038E1  -3.226100225533052E1  -8.062401803908746E1  
                        -3.540229978621053E1  -1.404724649167729E2  -3.423658455225394E1   1.717972466660634E1  -1.536116317538711E1   1.464231688038996E1  -2.798411132130882E1  -1.273206938235749E2  
                        -3.495966042599414E1  -9.167494806526831E1  -3.227082712516100E1  -7.929554892481845E1  -2.824143638307781E1  -1.236145636430749E2  -1.285142575579251E1  -5.672550272942043E1  
                        
 4.947240240240240E10   -1.566906298815277E1  -6.160547007683311E1  -2.825794800078026E1   1.116288425718924E2  -3.553335760452163E1   1.132004628635001E2  -3.466686377945825E1   1.518830337541097E2  
                        -2.849369258100747E1   1.154571509344638E2  -1.154414509694256E1  -1.747469411035821E2  -3.451496490188503E1  -8.590043038329178E1  -3.165852323959127E1  -1.274628909487569E2  
                        -3.583158622125121E1   1.100458043331188E2  -3.464964873029908E1  -9.315499974794925E1  -1.641357013452357E1  -7.320079211100222E1  -2.793503182726601E1   1.223523504144316E2  
                        -3.471853808570593E1   1.558917763625183E2  -3.146510638152891E1  -1.268358193790179E2  -2.808870874561768E1   1.257600386431406E2  -1.083457724564767E1  -9.740559669437813E1  
                        
 4.954246246246246E10   -1.504360520436522E1  -1.360736546542446E2  -2.884122483428514E1   3.741899025520326  -3.464183486126485E1   1.211113889120222E-1  -3.452372614147471E1   4.101075354075791E1  
                        -2.879999646604185E1   7.731211078124833  -1.087743414189841E1   1.470199054310473E2  -3.519316863630837E1   1.618019559691498E2  -3.148423415201821E1  -1.758801288074403E2  
                        -3.455843009428241E1  -2.582850680503550  -3.503159811236587E1   1.593567667570486E2  -2.143076553519799E1   1.786336324538950E2  -2.807261856818354E1   9.870740628889857  
                        -3.462759099658129E1   4.397384366204654E1  -3.160163282980463E1  -1.769181067746086E2  -2.806194757560352E1   1.277869654296939E1  -1.147885848118173E1  -1.266402636956875E2  
                        
 4.961252252252252E10   -1.995079636668726E1   1.380976796320350E2  -2.918510946103433E1  -1.046128975063738E2  -3.392847466766559E1  -1.189451181891661E2  -3.484689370139736E1  -7.142086599223964E1  
                        -2.918834794866708E1  -9.986822626323955E1  -1.050966310569288E1   1.118662457085361E2  -3.564238106906902E1   5.690867349945071E1  -3.230301964655700E1   1.344070730894553E2  
                        -3.422562476178345E1  -1.225352929726192E2  -3.538651328273708E1   5.152015067955018E1  -1.667336746202111E1   1.861642581980305E1  -2.882420632277976E1  -1.039297807072565E2  
                        -3.491109288962521E1  -6.681781986135211E1  -3.206413564910670E1   1.334384365735511E2  -2.891022106630947E1  -9.937648846823915E1  -1.087352651894231E1  -1.764733212087433E2  
                        
 4.968258258258258E10   -1.915159681097061E1  -3.688724249833174E1  -2.948473487420705E1   1.493089271465881E2  -3.429181248381933E1   1.193548753310144E2  -3.547165644135743E1   1.784568415644155E2  
                        -2.964794253542718E1   1.523913198574129E2  -1.055158979276128E1   7.044060625016350E1  -3.588767167929039E1  -5.038365798087574E1  -3.332061898905229E1   8.795386892331425E1  
                        -3.451739892536440E1   1.180851397441975E2  -3.626693728940535E1  -5.251776980981919E1  -1.359305398553599E1  -6.867113657176677E1  -2.967652632992100E1   1.483923386348701E2  
                        -3.529948547452574E1  -1.788410679461611E2  -3.307314045722245E1   8.544798110657686E1  -2.944627876540968E1   1.543849817807684E2  -9.077105239379080   1.521281795405766E2  
                        
 4.975264264264264E10   -1.338428731090929E1  -1.315368100496227E2  -2.980576620516330E1   4.381628681433620E1  -3.442353947734788E1   6.741788889730080  -3.611180896317693E1   7.178900085121578E1  
                        -2.980987313771001E1   4.827184763666821E1  -1.064055169804317E1   2.732873475248924E1  -3.590175386369126E1  -1.539463574806809E2  -3.428943877428723E1   4.327651149483126E1  
                        -3.459226729526255E1   5.908737710709008  -3.610716822982131E1  -1.562361760017981E2  -1.546433169266070E1  -1.555249450028372E2  -2.966199279543391E1   4.515423443469791E1  
                        -3.594607251607042E1   7.513795332748852E1  -3.404395360746542E1   4.299194372257177E1  -2.944418237810879E1   4.903886838826420E1  -1.062068981368539E1   1.146220382287097E2  
                        
 4.982270270270270E10   -1.454210783192273E1   1.549513468122550E2  -2.893691141123621E1  -6.228686351043976E1  -3.438201428275794E1  -1.086983261776094E2  -3.575774457415456E1  -3.290450895309522E1  
                        -2.908761841614388E1  -5.632178643500124E1  -1.183884881613644E1  -1.669554452154751E1  -3.536096143808130E1   1.005017249344789E2  -3.553120611123698E1   2.624661411546565  
                        -3.441982994133407E1  -1.077818671287501E2  -3.553594042221187E1   9.240216624706888E1  -2.098988936180103E1   5.040817664785139E1  -2.949785164783425E1  -6.136339999946741E1  
                        -3.584112743392880E1  -3.271812564086110E1  -3.535781734553699E1   1.890552316810642  -2.967479886870859E1  -5.876229892627687E1  -1.020420966817774E1   6.629271964094160E1  
                        
 4.989276276276276E10   -2.523290307221983E1  -1.687737846938860E1  -2.871105335165437E1  -1.721940322125140E2  -3.376003615759161E1   1.339109608537848E2  -3.527651700493193E1  -1.432285246248061E2  
                        -2.869601469750879E1  -1.680603098127650E2  -1.319922769286174E1  -6.482320668239579E1  -3.538959943604056E1  -9.397602282336026  -3.587668973443127E1  -3.186643530251486E1  
                        -3.410739255048986E1   1.335730353908413E2  -3.542971897797680E1  -1.521987344012851E1  -1.445543300900807E1  -6.841482282972378E1  -2.945050638440445E1  -1.671041256703431E2  
                        -3.547506529934486E1  -1.419532989741082E2  -3.572754095728003E1  -3.461547918671393E1  -2.920169625417020E1  -1.657246075161883E2  -1.143421137761122E1   3.143150686053045E1  
                        
 4.996282282282282E10   -1.498118390542544E1  -1.325231122445679E2  -2.825341983196596E1   7.536155445559884E1  -3.340555879077027E1   1.937477042541597E1  -3.484219875246015E1   1.061329887295950E2  
                        -2.838553048265433E1   8.081430162671934E1  -1.367931550917949E1  -1.095881695026724E2  -3.490266190790266E1  -1.191567613419631E2  -3.518573947383909E1  -7.123658976353612E1  
                        -3.348234619540723E1   1.923779733568407E1  -3.511359458093875E1  -1.224107165623001E2  -1.339795549823111E1  -1.485975247887715E2  -2.896490418777932E1   8.244090706254481E1  
                        -3.520225006995435E1   1.094005653355285E2  -3.508404542964288E1  -7.502893479162250E1  -2.885355422562497E1   8.758968068826995E1  -1.346634814778276E1  -2.475094372936984E1  
                        
 5.003288288288288E10   -1.368136999449406E1   1.566892530641459E2  -2.852359235066496E1  -3.465305958870688E1  -3.257781029688618E1  -9.671831167197915E1  -3.431019763900365E1  -3.193514915228613  
                        -2.851109292696504E1  -3.076616308400876E1  -1.353275317151999E1  -1.544532470477229E2  -3.482095284459467E1   1.297395128147810E2  -3.455605821479453E1  -1.187313526984010E2  
                        -3.277127693822792E1  -9.716855222564193E1  -3.481290058859180E1   1.263277844604930E2  -2.110959053472444E1   1.128314974202332E2  -2.823119784933842E1  -2.758634154362992E1  
                        -3.510700379003298E1  -1.029935175594329  -3.486954790784200E1  -1.193349312505190E2  -2.841785504906970E1  -2.527263041197482E1  -1.184137958035202E1  -6.140560996956552E1  
                        
 5.010294294294294E10   -2.124832923648086E1   8.694923397934682E1  -2.862343538776609E1  -1.460752124173988E2  -3.231608674279444E1   1.384962962657741E2  -3.422154364520618E1  -1.177275482613851E2  
                        -2.857123518321811E1  -1.420127524766577E2  -1.135360846848166E1   1.669684649552947E2  -3.565570671427035E1   2.024066852104664E1  -3.465233600667291E1  -1.662012787402283E2  
                        -3.219598728310653E1   1.397764585530517E2  -3.547998011779997E1   1.414462718404816E1  -1.602917890283102E1  -5.723610428664671E1  -2.843865885263330E1  -1.416359561012536E2  
                        -3.447340904680004E1  -1.109279271819164E2  -3.472984251364355E1  -1.662023748657058E2  -2.837025434092044E1  -1.378698314674706E2  -1.344282045755398E1  -9.397491947198850E1  
                        
 5.017300300300300E10   -1.605705804319456E1  -1.301159487206159E2  -2.928068881350983E1   1.052672232308052E2  -3.243733497386884E1   2.093835352023784E1  -3.423375811247997E1   1.292155338152338E2  
                        -2.933234481171406E1   1.085108899893401E2  -1.043483515223067E1   1.320406571745855E2  -3.602903734388701E1  -8.684944716225574E1  -3.553737976799274E1   1.481875193309156E2  
                        -3.259734408964076E1   2.080013256290098E1  -3.611124686125668E1  -9.115619427021814E1  -1.230601599305133E1  -1.411395273131153E2  -2.864323226707613E1   1.069633275999656E2  
                        -3.466902781548155E1   1.316596948988801E2  -3.536082321100175E1   1.471247499699253E2  -2.869386587484683E1   1.119564933689334E2  -1.189127225688507E1  -1.476667252059743E2  
                        
 5.024306306306306E10   -1.263000399836544E1   1.637344221142822E2  -2.964280092981694E1  -1.288527668192528  -3.184486124679627E1  -9.636967125753735E1  -3.495292494713444E1   1.782923190058622E1  
                        -2.954469989926567E1   4.536135388508042  -1.044606038568563E1   9.424483465381076E1  -3.587480662437404E1   1.701004119123702E2  -3.597208136817398E1   1.042443601421631E2  
                        -3.227352164012712E1  -9.496510037618836E1  -3.604538890184698E1   1.641405140511544E2  -1.512482655318806E1   1.448160460847012E2  -2.903528166119253E1   7.897463619270616E-2  
                        -3.514618134223236E1   2.490773318131813E1  -3.604736757498026E1   1.044335599239840E2  -2.908670794388277E1   3.607614896176361  -1.071628033428137E1  -1.733083841288588E2  
                        
 5.031312312312312E10   -1.698070641626942E1   1.060505926220419E2  -2.927475041965135E1  -1.085758192784103E2  -3.179392095581392E1   1.444208228902636E2  -3.497683792902373E1  -9.098911103345796E1  
                        -2.919955354151163E1  -1.029291093992795E2  -1.083391078427484E1   5.521556823134464E1  -3.538090642567314E1   6.041051267118868E1  -3.669259979388222E1   6.175026642263915E1  
                        -3.169005350664144E1   1.442805979928517E2  -3.553311567832126E1   5.550771215204038E1  -2.198512046989072E1  -3.561351200519338E1  -2.918785379910703E1  -1.110537305394161E2  
                        -3.502138842937610E1  -8.459726553684175E1  -3.663533556796666E1   6.067716744648586E1  -2.913997717661477E1  -1.062716210845395E2  -1.272081188668424E1   1.418480981292021E2  
                        
 5.038318318318318E10   -2.214467928069141E1  -1.193087294468365E2  -2.908502234000145E1   1.434696020883547E2  -3.195218907814806E1   2.260414048759467E1  -3.523138884833139E1   1.617844768302088E2  
                        -2.908680713749510E1   1.483522989798467E2  -1.270473969515594E1   1.587731803487608E1  -3.561977977012667E1  -4.764867575834101E1  -3.651272975660164E1   2.245655877815735E1  
                        -3.181433350914032E1   2.169827247047483E1  -3.563492146526627E1  -5.478879059357592E1  -1.334485069256430E1  -1.355723264274870E2  -2.955703670706695E1   1.411480330681210E2  
                        -3.496310157963383E1   1.637973146540282E2  -3.689381103537141E1   1.865350818763108E1  -2.963414309833836E1   1.459248245918028E2  -1.127270431847336E1   9.872465260528047E1  
                        
 5.045324324324324E10   -1.362159117736815E1  -1.787895365041532E2  -2.877214415821947E1   3.524930351351839E1  -3.211147966566359E1  -9.399324209987304E1  -3.523069041133930E1   5.112933419834049E1  
                        -2.866166397574337E1   4.107634710129747E1  -1.439087947471965E1  -3.069806749811439E1  -3.517651096340660E1  -1.545866518882965E2  -3.740429944740173E1  -2.003763258882716E1  
                        -3.218035962170281E1  -9.328406744544252E1  -3.535516815013420E1  -1.596907323099332E2  -1.266722274093234E1   1.512329418285654E2  -2.975279562205335E1   3.678427608821299E1  
                        -3.532439361577442E1   5.624240285306846E1  -3.716947547736939E1  -2.110466659147990E1  -2.936149419632607E1   4.048209012845703E1  -1.384046091104158E1   7.509608299374176E1  
                        
 5.052330330330330E10   -1.485328346783038E1   1.161542341953562E2  -2.824608586524472E1  -7.607390914758649E1  -3.152096586459158E1   1.459569036950667E2  -3.514405696267612E1  -5.873764078353041E1  
                        -2.836024232677488E1  -7.022543394180065E1  -1.517525171314250E1  -6.931455616019200E1  -3.459594023980768E1   9.307255955946225E1  -3.788897226274910E1  -6.067897404711862E1  
                        -3.171178185101973E1   1.495178724044165E2  -3.432653516965254E1   8.940463540620479E1  -2.230706462967580E1   5.483292821725131E1  -2.915604441924606E1  -7.213291064081632E1  
                        -3.495886734944687E1  -5.249628614121669E1  -3.801252966386033E1  -6.032061786359683E1  -2.916152359683199E1  -6.853317404701669E1  -1.692405070339270E1   1.466869682905944E1  
                        
 5.059336336336336E10   -2.593034259814933E1  -8.225524543565911E1  -2.821185204100632E1   1.710238412374102E2  -3.162802350951365E1   2.645982056556305E1  -3.466432065542290E1  -1.673790549531022E2  
                        -2.809813415581240E1   1.759470710739119E2  -1.593698796048723E1  -1.163389820953758E2  -3.478174114067456E1  -1.779700257518738E1  -3.851924562726403E1  -9.583471012882693E1  
                        -3.154633342391765E1   2.501349415170222E1  -3.486812944789790E1  -2.194920615732354E1  -1.416579528441463E1  -1.174737134348137E2  -2.876475483823052E1   1.776957550769611E2  
                        -3.468580693138529E1  -1.646299947365172E2  -3.816499321904372E1  -9.958222852885518E1  -2.880225057426168E1  -1.784264678179428E2  -1.522961997064175E1  -1.203733582904842E1  
                        
 5.066342342342342E10   -1.218514417510368E1  -1.661664466809155E2  -2.852650069767307E1   6.158145587141365E1  -3.178256037772064E1  -9.327912232225485E1  -3.450009182530558E1   8.028128036397980E1  
                        -2.880468804014796E1   6.486762970778537E1  -1.422397121722574E1  -1.627291235317997E2  -3.481146276380807E1  -1.271649529178920E2  -3.744690951055824E1  -1.376168436348617E2  
                        -3.208258119383849E1  -9.245724813686250E1  -3.528621597022143E1  -1.314311689263268E2  -1.105894917029235E1   1.676878034512418E2  -2.908514570184353E1   6.850583271339191E1  
                        -3.477448900615732E1   8.211101636365488E1  -3.756863292180871E1  -1.377678855498343E2  -2.898003472728695E1   7.006029590487670E1  -1.904370676408230E1  -4.747854335834144E1  
                        
 5.073348348348348E10   -1.245967531024989E1   1.293408313929667E2  -2.863418270108869E1  -4.979591797522992E1  -3.159390323275235E1   1.478999699934442E2  -3.474304377080205E1  -3.063365855778850E1  
                        -2.880353706076808E1  -4.351799076561009E1  -1.278789201224778E1   1.550528624242197E2  -3.499547912044005E1   1.250337978962224E2  -3.630682802840940E1   1.779183062146684E2  
                        -3.129387572498572E1   1.493483584471127E2  -3.462897676417686E1   1.209628847370153E2  -1.605960084751141E1   9.551775535074781E1  -2.851812862281082E1  -4.386100998145206E1  
                        -3.473032075495846E1  -2.832905475041093E1  -3.636068663818895E1   1.769386846164587E2  -2.873417250118328E1  -3.917259155208607E1  -1.427835659958435E1  -1.143272662248913E2  
                        
 5.080354354354354E10   -2.260069154463340E1   2.542166760356427E1  -2.876807013696179E1  -1.581723437298194E2  -3.171024578850703E1   2.640070338584767E1  -3.480209366869973E1  -1.417597687139381E2  
                        -2.878368121223471E1  -1.524915365116767E2  -1.193898536142375E1   1.129913740735906E2  -3.483868592983671E1   1.452398887833533E1  -3.588358537973115E1   1.286918666935443E2  
                        -3.172402121428541E1   2.620380480972575E1  -3.505453869497281E1   9.186599078988030  -1.762954291571457E1  -1.096478314801127E2  -2.877831554541248E1  -1.551888713618224E2  
                        -3.490860649336251E1  -1.380255354728653E2  -3.590446367291286E1   1.295374158409247E2  -2.853861480826571E1  -1.517824832349665E2  -1.271841258238309E1  -1.351988169344666E2  
                        
 5.087360360360360E10   -1.384103879162760E1  -1.453581663038476E2  -2.884348381794322E1   9.394943710734877E1  -3.257278291143279E1  -9.401940887573153E1  -3.530952264442067E1   1.062288073583910E2  
                        -2.907404410078918E1   9.808678517093887E1  -1.159235156800731E1   7.832844544925000E1  -3.507750089993647E1  -9.209719601434510E1  -3.633747983797880E1   7.682672987148925E1  
                        -3.258932612045238E1  -9.510617278223664E1  -3.520746379517581E1  -9.453905914818030E1  -1.101954965754174E1   1.717301893570898E2  -2.914164572868144E1   9.607790616124282E1  
                        -3.558080213121181E1   1.091685979638689E2  -3.625312252656180E1   7.764928851621120E1  -2.923634839693602E1   9.759360973331999E1  -1.470252832158148E1   1.697565924998505E2  
                        
 5.094366366366366E10   -1.194065772804230E1   1.468386813302676E2  -2.875143002012826E1  -1.453430726926921E1  -3.262095140999608E1   1.503951104529593E2  -3.588205810283694E1  -2.526053694903029  
                        -2.909700886422411E1  -8.684486656362118  -1.232315585502758E1   4.830876050501434E1  -3.519672590319575E1   1.588205376072586E2  -3.856986453129410E1   2.871257474948490E1  
                        -3.285294317125410E1   1.500139511566543E2  -3.473470710441316E1   1.549545173181301E2  -1.229569325137675E1   1.023306459595601E2  -2.942668940038123E1  -1.209170169167533E1  
                        -3.532281522469738E1   1.467795717584037  -3.812475631896705E1   2.838337775486080E1  -2.931675899304380E1  -9.268403738198302  -1.217174407231378E1   1.359773365065228E2  
                        
 5.101372372372372E10   -1.897347872295137E1   4.440435836351740E1  -2.866966876535934E1  -1.234698539309863E2  -3.275812763133881E1   3.233753810708848E1  -3.561012911130128E1  -1.100705796674596E2  
                        -2.876242875279511E1  -1.190765293516552E2  -1.380345529652171E1   2.021474238602427E1  -3.470051270024012E1   4.959973628029793E1  -4.102221922543924E1  -3.738510533923471  
                        -3.278474537701478E1   3.037378203816848E1  -3.437960771336518E1   4.455842254160766E1  -2.256067255809405E1  -5.408553647954164E1  -2.919225402037992E1  -1.230714754832593E2  
                        -3.541039965798651E1  -1.064106153976668E2  -4.097028525610337E1  -4.435594977371652  -2.925747809607123E1  -1.186072092613391E2  -1.496386657750322E1   1.287498826695588E2  
                        
 5.108378378378378E10   -1.455235593559166E1  -1.239358394577814E2  -2.862958851683793E1   1.259624046519659E2  -3.330885108098724E1  -8.975176785345772E1  -3.552576811905283E1   1.394975470347915E2  
                        -2.882687941356429E1   1.297610491024036E2  -1.583372283616803E1  -6.032203320538868  -3.497210556151801E1  -6.047663649059626E1  -4.048694540517568E1  -1.966230791088945E1  
                        -3.364154767285813E1  -8.877333890272969E1  -3.489227270880425E1  -6.567958720650009E1  -1.182838485376526E1  -1.783636376879963E2  -2.959063327030726E1   1.279949848659884E2  
                        -3.534243092282905E1   1.430624049643454E2  -4.079011421537810E1  -2.022692578206553E1  -2.954681885478771E1   1.315862781853992E2  -1.746909054174911E1   8.194467272745096E1  
                        
 5.115384384384384E10   -1.159842113369896E1   1.562119274878328E2  -2.848260242487567E1   1.577255494139756E1  -3.391176572966241E1   1.554939148154631E2  -3.555483626944818E1   3.020462540524409E1  
                        -2.852920271013952E1   2.119934585228445E1  -1.840087191576762E1  -5.099248663650268E1  -3.492163436164945E1  -1.672228651376103E2  -3.674399673571669E1  -5.177477659349698E1  
                        -3.378932371568097E1   1.561233116037758E2  -3.476520046028480E1  -1.745802570229637E2  -1.101973166219001E1   1.059418050734008E2  -2.962192961021098E1   2.286978991204907E1  
                        -3.575945507324450E1   3.339361171958396E1  -3.727514621732502E1  -5.601324482149419E1  -2.959297773634895E1   2.532549274958429E1  -1.428775050585180E1   5.748231567378659E1  
                        
 5.122390390390390E10   -1.680747105735568E1   5.391849145041766E1  -2.845677955076040E1  -9.582681895426984E1  -3.395017666921542E1   3.986704634657495E1  -3.539629136722316E1  -7.771211395369812E1  
                        -2.849186706431456E1  -9.071690092488097E1  -1.725604120084169E1  -1.218613910502765E2  -3.448606537104477E1   8.133044202988874E1  -3.471130422737658E1  -1.052264117705146E2  
                        -3.411607326112328E1   3.800037289114410E1  -3.453595384104551E1   7.681842951273238E1  -1.839776696393922E1   7.997557155156894  -2.894524558268987E1  -8.710105847284187E1  
                        -3.519013443175636E1  -7.626037998161117E1  -3.466624855971865E1  -1.072261938504292E2  -2.909964890300372E1  -8.355921646634181E1  -1.907096406260111E1   3.089949425138561E1  
                        
 5.129396396396396E10   -1.504342438367352E1  -1.042551318604707E2  -2.870685298155219E1   1.536532330983592E2  -3.456386733287471E1  -8.212178187331477E1  -3.480676613401051E1   1.701430378698183E2  
                        -2.877012494955279E1   1.579927597207783E2  -1.457831143753759E1  -1.773182035375289E2  -3.467793061936315E1  -2.935501446778411E1  -3.378570223909898E1  -1.626152801646184E2  
                        -3.462772876599503E1  -8.206592997883621E1  -3.478411719127008E1  -3.496211040650623E1  -1.413906100924324E1  -1.641766549469941E2  -2.878078213251211E1   1.620483016042772E2  
                        -3.518344754806396E1   1.717546817556891E2  -3.388911293221715E1  -1.664681438547748E2  -2.891907006748415E1   1.645279752838503E2  -1.581388453810114E1  -6.623746060688323E1  
                        
 5.136402402402402E10   -1.101411812608745E1   1.692562404310506E2  -2.907390632226941E1   4.450679178508381E1  -3.574676421235168E1   1.673395113156560E2  -3.504772430308981E1   5.963111466774581E1  
                        -2.903072057883669E1   4.990250982698770E1  -1.244954019109959E1   1.435662323704100E2  -3.531637732473815E1  -1.377868290055867E2  -3.444497085802482E1   1.385889959497170E2  
                        -3.549293172474896E1   1.670340697334200E2  -3.527616087565026E1  -1.422540119143918E2  -1.126534096464122E1   1.138060563911715E2  -2.896690758911109E1   5.091683583234654E1  
                        -3.534159849402283E1   6.204153460671306E1  -3.437454167337239E1   1.377144135863040E2  -2.912491958293492E1   5.515179905841279E1  -1.581457518090296E1  -9.277194147388160E1  
                        
 5.143408408408408E10   -1.448308987253159E1   7.722260251890393E1  -2.903362374656018E1  -6.489646211103364E1  -3.538154639940318E1   5.354667708913104E1  -3.518288646072654E1  -5.112336074729752E1  
                        -2.898959518359748E1  -6.109391448098894E1  -1.230953212900135E1   1.145071109434147E2  -3.493345289839559E1   1.125924114709523E2  -3.620725872918015E1   8.550175821023085E1  
                        -3.516438245151390E1   4.955370296994548E1  -3.504423190365206E1   1.075426423523996E2  -1.505538430553177E1   3.460791829339617E1  -2.885983675366171E1  -5.944598948514978E1  
                        -3.517495714672997E1  -4.874526948546101E1  -3.633565479975926E1   8.604390887683992E1  -2.887316787350264E1  -5.503121000128870E1  -1.638924416743043E1  -1.676495477447723E2  
                        
 5.150414414414414E10   -1.627965885779424E1  -7.015845583214242E1  -2.926225608110389E1  -1.756333881971055E2  -3.530703176281863E1  -6.594164100703537E1  -3.506835029710077E1  -1.616393172138694E2  
                        -2.912475688880755E1  -1.707216961929265E2  -1.263888070071537E1   9.160285940657278E1  -3.494308151229070E1   4.587093551530081  -3.962190499468848E1   5.272772976061272E1  
                        -3.543445184399498E1  -6.652593951226857E1  -3.499717184091756E1  -3.346881471597310  -1.787682603003031E1  -1.465181511105760E2  -2.887465866628739E1  -1.732392498412648E2  
                        -3.559873183641101E1  -1.595231766445991E2  -3.934955986036967E1   5.113271854265669E1  -2.910744646008856E1  -1.683338943736708E2  -1.246337011406533E1   1.784741958387625E2  
                        
 5.157420420420420E10   -1.256759138593561E1   1.787442683551580E2  -2.942426894507604E1   7.529220412948388E1  -3.617539983627704E1   1.792292722743368E2  -3.556473672423747E1   8.646979935529956E1  
                        -2.947074822325230E1   8.153984341339285E1  -1.298519838203686E1   6.534125390049947E1  -3.516387002719011E1  -1.063715699851326E2  -3.903128988891793E1   3.521526918490377E1  
                        -3.603478326719742E1   1.781024225341380E2  -3.566324250815389E1  -1.085438341801461E2  -1.169717407749366E1   1.266321558218158E2  -2.929076838721676E1   7.919034504711145E1  
                        -3.573188693184932E1   9.081505107932961E1  -3.951798487117623E1   3.005799321125273E1  -2.982675584643166E1   8.225916162802176E1  -1.491193200717377E1   1.673169783024168E2  
                        
 5.164426426426426E10   -1.381185184484075E1   8.712295401619112E1  -2.948889529582983E1  -3.293658947199436E1  -3.648751261400624E1   6.746273037794845E1  -3.569023414429889E1  -1.905780065456074E1  
                        -2.939256852577553E1  -2.815676264333051E1  -1.315334057491603E1   3.442172811407732E1  -3.521073461597073E1   1.467687475655227E2  -3.566242626750758E1  -1.226925195279249  
                        -3.654126210837668E1   6.623536576407571E1  -3.543394796256366E1   1.445727889703397E2  -1.368372306871060E1   4.637768668744221E1  -2.980716874751678E1  -2.721630218453097E1  
                        -3.545138481713592E1  -1.891598353957500E1  -3.603242121465035E1  -2.910434140310586  -2.975891713075502E1  -2.279712505535249E1  -1.388871469985957E1   1.093758071594169E2  
                        
 5.171432432432432E10   -1.741765921687748E1  -4.508246711075828E1  -2.919651930563778E1  -1.412362539102292E2  -3.590995468806233E1  -4.546408925488483E1  -3.561546984228368E1  -1.298771988342710E2  
                        -2.932987295389394E1  -1.370003695796210E2  -1.415997956960421E1  -8.705762941181940  -3.507443015924357E1   3.857382453198325E1  -3.381847788974192E1  -5.044555368404158E1  
                        -3.635240871792335E1  -4.598783476743647E1  -3.526927650329471E1   3.463506874893010E1  -2.222213443122779E1  -9.989961375787239E1  -2.984111734582638E1  -1.375337941723533E2  
                        -3.586026702128747E1  -1.254982489335937E2  -3.362373230194177E1  -4.996579776801345E1  -2.970415825072918E1  -1.324604726112662E2  -1.155197927903491E1   9.075707976698394E1  
                        
 5.178438438438438E10   -1.421714290119962E1  -1.702918635987009E2  -2.919872951742083E1   1.092048311577964E2  -3.632223531566404E1  -1.608754431184914E2  -3.552776662636764E1   1.205657177686010E2  
                        -2.915180567299426E1   1.143544929697899E2  -1.528395766583683E1  -6.181949681883926E1  -3.518028296948700E1  -7.079875106527857E1  -3.226832568611146E1  -1.064316420375436E2  
                        -3.612759602186443E1  -1.605375082656696E2  -3.533886208293517E1  -7.575764078139083E1  -1.322841277427930E1   1.364122178821408E2  -2.960308820225836E1   1.136205590543867E2  
                        -3.546452122052851E1   1.249168660954339E2  -3.202930314335728E1  -1.070300714227661E2  -2.957196529618894E1   1.182243394550071E2  -1.563354755529027E1   5.217038952413692E1  
                        
 5.185444444444444E10   -1.245452617586368E1   1.002545270417641E2  -2.916511996506961E1  -7.665936333031072E-1  -3.580563961891093E1   8.738427000322112E1  -3.521193591801556E1   1.188029708100090E1  
                        -2.901750086618489E1   5.366235904854237  -1.621309356268591E1  -1.225834100835870E2  -3.500142421081501E1  -1.778798209643736E2  -3.200753898140658E1  -1.623380847635532E2  
                        -3.544820835760341E1   8.685104193512603E1  -3.502125872153737E1   1.759303430981671E2  -1.346893731338984E1   6.729493752584780E1  -2.960936826433322E1   6.499601907773033  
                        -3.501684866736517E1   1.591928844260406E1  -3.192456502326703E1  -1.639905232772836E2  -2.953330555158448E1   1.206100013674438E1  -1.374709158199472E1  -1.014482836276727E1  
                        
 5.192450450450450E10   -1.570535948102236E1   5.399749959264407  -2.905242003504640E1  -1.109698204924928E2  -3.467876798419454E1  -3.199212721996246E1  -3.462001286245628E1  -9.902264721891112E1  
                        -2.887025024347069E1  -1.070979544372537E2  -1.528714755283781E1  -1.777521230396656E2  -3.486412277815840E1   7.092526996235631E1  -3.262329960328932E1   1.408354014516332E2  
                        -3.500087469704120E1  -3.153348933358875E1  -3.507504367279773E1   6.487950271707126E1  -2.146358055400788E1  -4.904338775699772E1  -2.900609994421733E1  -1.050935878834378E2  
                        -3.477509731211200E1  -9.899766870472196E1  -3.276271050497926E1   1.409238328743822E2  -2.899603370318041E1  -1.019483967993089E2  -1.665251802828667E1  -3.172700225154380E1  
                        
 5.199456456456456E10   -1.833515599616517E1  -1.311562360722284E2  -2.920239285827820E1   1.365061771467177E2  -3.519983943274530E1  -1.493115543163682E2  -3.468377516313744E1   1.483458239915187E2  
                        -2.886263861018776E1   1.401137596864163E2  -1.408291960031819E1   1.459493749384884E2  -3.503707248259028E1  -4.222748031107001E1  -3.429236162264785E1   9.099345453916278E1  
                        -3.473969581156914E1  -1.487083273641312E2  -3.503918416448311E1  -4.627386958827096E1  -1.444989079590383E1   1.533125802005521E2  -2.907239992666329E1   1.419763527671504E2  
                        -3.462072853959774E1   1.487887164692797E2  -3.461095119177599E1   9.024979279989682E1  -2.905180040972516E1   1.456298947054789E2  -1.807620643021367E1  -1.290945967832138E2  
                        
 5.206462462462462E10   -1.424440714500792E1   1.035013101029155E2  -2.969570782254790E1   2.461295113863064E1  -3.474557527195820E1   9.558643848673944E1  -3.503864303378391E1   3.418210954662946E1  
                        -2.941643146696113E1   2.813808756818824E1  -1.257943700687984E1   1.154011318335962E2  -3.536032704554472E1  -1.495290171732405E2  -3.629851645872900E1   5.570679619495918E1  
                        -3.504961779875940E1   9.779681122690502E1  -3.563332741449984E1  -1.563384916625410E2  -1.258617894569846E1   8.302629805683448E1  -2.940371981661096E1   3.130000723351256E1  
                        -3.492027397432538E1   3.935456710175589E1  -3.659185145174802E1   5.302014299845393E1  -2.953964365682059E1   3.423515090889488E1  -1.342391807226715E1  -1.377251220131084E2  
                        
 5.213468468468468E10   -1.415310821169520E1   2.403288242817680E1  -2.979697552395701E1  -8.144502010683792E1  -3.420165408358086E1  -1.988551139786019E1  -3.543215032972115E1  -7.688376210517899E1  
                        -2.981065911267670E1  -8.043407551794776E1  -1.108305880942608E1   8.958221010323459E1  -3.576846233563440E1   1.025360725489422E2  -3.616952671712326E1   2.744454623322820E1  
                        -3.407378537547702E1  -2.064772452745832E1  -3.544445058264894E1   9.729445226749766E1  -1.942763439207307E1  -1.153255214933342E1  -2.957057566776214E1  -8.000185597810841E1  
                        -3.523136800765843E1  -7.341630519904803E1  -3.689357832467344E1   2.481556171091775E1  -2.979649073347636E1  -7.562088736442000E1  -1.613417029312211E1  -1.681392514261533E2  
                        
 5.220474474474474E10   -2.131477798540762E1  -9.614253113950905E1  -2.996076429811286E1   1.684904200008680E2  -3.399018115629094E1  -1.371826189285246E2  -3.571103495027285E1   1.736286985224858E2  
                        -3.014083071064620E1   1.717305209018001E2  -1.057534229979427E1   5.928563690714130E1  -3.568372655275720E1  -7.878652508935242  -3.460819389239239E1  -1.025351741248196E1  
                        -3.376329740876361E1  -1.379290225271992E2  -3.593069705068177E1  -1.089354554748711E1  -1.733246689500159E1   1.739032411489693E2  -3.021120234467576E1   1.706695770944518E2  
                        -3.545140241794266E1   1.748059654601846E2  -3.466248779770514E1  -1.002728416712058E1  -3.006855864503924E1   1.733972162922329E2  -1.222190286186103E1   1.347206388432637E2  
                        
 5.227480480480480E10   -1.504326210526740E1   1.144710258043101E2  -3.062453301179246E1   6.084059276775850E1  -3.334830714788743E1   1.056693040220585E2  -3.588406967906966E1   6.297342860022087E1  
                        -3.033926858970077E1   6.470558806481292E1  -1.140711962513523E1   2.770533820261676E1  -3.571907003353442E1  -1.138012431623178E2  -3.279763952357013E1  -5.687593608754049E1  
                        -3.336720685686554E1   1.049719105060589E2  -3.633380980770529E1  -1.195834475779952E2  -1.187147438649448E1   9.902304088414604E1  -3.094200548475849E1   6.241955901630167E1  
                        -3.613727304418268E1   6.905449140527530E1  -3.289091666515382E1  -5.561152537645916E1  -3.108788616815810E1   6.634595087712128E1  -1.063297940336760E1   1.183679380447936E2  
                        
 5.234486486486486E10   -1.149534534909289E1   3.529401294054100E1  -3.016228140741301E1  -4.558186949153087E1  -3.297025106142400E1  -1.503236459890755E1  -3.593913107770226E1  -4.500796935315184E1  
                        -3.030992509704042E1  -4.386483985349032E1  -1.431351128283949E1  -9.358822323689928  -3.546816383386725E1   1.396490150102857E2  -3.104195554649893E1  -1.091288649198655E2  
                        -3.305771351861973E1  -1.533766964022153E1  -3.554962482132963E1   1.345337765942333E2  -1.695734317583411E1   2.288842995043265E1  -3.077122324082726E1  -4.367719386995361E1  
                        -3.597706029357961E1  -4.152361153042894E1  -3.104109209156760E1  -1.086081736727789E2  -3.076633103067795E1  -3.778115270075885E1  -1.413233410023145E1   7.171339967322901E1  
                        
 5.241492492492492E10   -1.606923951240490E1  -4.720608403872706E1  -2.981678583827599E1  -1.563856468003405E2  -3.284812178595809E1  -1.343993367709154E2  -3.526434569305845E1  -1.515909202953946E2  
                        -2.998481669957539E1  -1.518186585044078E2  -1.854997179905999E1  -7.404153071272488E1  -3.525798485494212E1   2.937512916899629E1  -3.027440174716993E1  -1.635610571632682E2  
                        -3.273528966683870E1  -1.372073129171414E2  -3.532319390495352E1   2.348317597837606E1  -1.953019879606565E1  -1.553438600951648E2  -3.052708902106704E1  -1.516094215609767E2  
                        -3.574936262245491E1  -1.501443453476680E2  -3.041897395292516E1  -1.649639374507494E2  -3.071329483549564E1  -1.472510185157026E2  -1.188813616156202E1   2.971545408190073E1  
                        
 5.248498498498498E10   -1.758503358211727E1   1.340258159790909E2  -2.967813894751775E1   9.009143607130652E1  -3.287077805348122E1   1.039403767257172E2  -3.556671965691227E1   9.685724296269508E1  
                        -2.955386682410785E1   9.858741611988747E1  -1.805825128096974E1  -1.401987332662429E2  -3.495729867928363E1  -7.895301014134903E1  -3.053204867094128E1   1.387055836297859E2  
                        -3.318530821023237E1   1.037113300240040E2  -3.518928939514694E1  -8.564711817634398E1  -1.147059342131217E1   1.056462709536007E2  -3.056681273242062E1   9.931894780244880E1  
                        -3.523577015160032E1   1.012003533078831E2  -3.061915320242152E1   1.373563365247935E2  -3.036290539079308E1   1.042475713318172E2  -1.571605989994160E1   1.500478192079515E1  
                        
 5.255504504504504E10   -1.091141332300015E1   4.325283508822465E1  -2.978249487357130E1  -1.904526289530074E1  -3.312694052053394E1  -1.201463510717874E1  -3.517500036442763E1  -1.365060683291475E1  
                        -2.946289983177730E1  -1.518840742224603E1  -1.528901922975492E1   1.769611529474901E2  -3.497035359972630E1   1.699444915863923E2  -3.174511981997048E1   8.239722797924452E1  
                        -3.301359929060208E1  -1.172383013710281E1  -3.527642401198566E1   1.629887145702646E2  -1.312248201746878E1   3.990104542522832E1  -3.006849584551472E1  -8.671940636593972  
                        -3.528480863507410E1  -1.135371461499714E1  -3.191812357431158E1   8.190141131049722E1  -2.979778883285802E1  -6.080125508931068  -2.003196582699421E1  -7.277842342915291E1  
                        
 5.262510510510510E10   -1.189464668236127E1  -2.774313742977300E1  -2.976515508897994E1  -1.304608999777378E2  -3.306989342381966E1  -1.296065785367785E2  -3.521272566969893E1  -1.247333350868903E2  
                        -2.988812119373671E1  -1.270442909131845E2  -1.319889702530154E1   1.509665069279094E2  -3.504710703868082E1   5.752613856977205E1  -3.441844004980364E1   3.782762238011132E1  
                        -3.277092655022066E1  -1.313819345145504E2  -3.529948813834207E1   5.262751092852767E1  -2.362024049911384E1  -1.031269664585450E2  -2.946080532118181E1  -1.221579860228619E2  
                        -3.530343360266914E1  -1.224099021852480E2  -3.461283177842624E1   3.723708862277596E1  -2.936768161472948E1  -1.187217612645314E2  -1.573119288674314E1  -8.307949031229795E1  
                        
 5.269516516516516E10   -2.238718766572914E1  -1.589468600862902E2  -2.995210469213045E1   1.166494854632929E2  -3.297729272912552E1   1.097628989846924E2  -3.492356532600347E1   1.229384434109102E2  
                        -3.005111425866722E1   1.221557986161844E2  -1.157270626688500E1   1.200026805934334E2  -3.561913341704577E1  -5.487279419521643E1  -3.623524616360728E1   7.748446254510574  
                        -3.286317258967254E1   1.101489516000206E2  -3.576022019046563E1  -5.571528920343875E1  -1.348376480747596E1   1.161010119950678E2  -2.995164148911986E1   1.250143510197750E2  
                        -3.496721674127981E1   1.259799937021323E2  -3.613821998812736E1   8.026733428000640  -2.988265318428108E1   1.266754116531717E2  -2.082997371057254E1  -1.363160225945714E2  
                        
 5.276522522522522E10   -1.195983972595458E1   5.378713675410057E1  -3.096302038393289E1   7.143368975978984  -3.321765521217581E1  -1.011440677780055E1  -3.600697282648970E1   1.070216093414810E1  
                        -3.041889377940214E1   1.053073656971683E1  -1.101184749550071E1   8.852283579065103E1  -3.655816816127393E1  -1.609818110562698E2  -3.394573491991371E1  -2.356284674681391E1  
                        -3.314061162984418E1  -9.070600448269936  -3.637128809489113E1  -1.636634491559515E2  -1.140766530750794E1   5.291255018264098E1  -3.060557838434169E1   1.208742617249507E1  
                        -3.525675078915485E1   1.560107065877085E1  -3.441580004907853E1  -2.392804919135946E1  -3.055070214808638E1   1.696841643337872E1  -1.210610482069481E1   1.614714996952447E2  
                        
 5.283528528528528E10   -1.066392986789652E1  -2.106204384891454E1  -3.117607988245785E1  -9.622249158228679E1  -3.286862012337726E1  -1.270379458789974E2  -3.585171795213938E1  -9.772936302350492E1  
                        -3.158657350597741E1  -9.501241887429460E1  -1.194582715168558E1   5.147213931582184E1  -3.624216413439467E1   9.326590730796731E1  -3.184718864477402E1  -7.102760877256051E1  
                        -3.317823615225110E1  -1.279718920600286E2  -3.615423307611567E1   9.032559839231627E1  -2.217011183305388E1  -3.107376555437034E1  -3.056606616148104E1  -9.690037364668751E1  
                        -3.580119011058464E1  -9.617380231765601E1  -3.181655013736926E1  -6.993323268411514E1  -3.078295001740105E1  -9.288321088414892E1  -1.147332954668905E1   1.484729242282438E2  
                        
 5.290534534534535E10   -1.722575957751320E1  -1.200698224026583E2  -3.089709098107175E1   1.545073650799854E2  -3.302726683108527E1   1.094017711680824E2  -3.608002359260218E1   1.512290764301297E2  
                        -3.132055914955812E1   1.595526981894957E2  -1.298545820895949E1   1.857813110093646E1  -3.613840849570430E1  -1.706625569317815E1  -3.021183865407448E1  -1.221737268197610E2  
                        -3.350816723829023E1   1.110504267493212E2  -3.594028979119435E1  -2.161389981148387E1  -1.538357851654594E1   1.224404681547109E2  -3.101533796215351E1   1.539934580864537E2  
                        -3.626394834554994E1   1.579802207258189E2  -3.034429903136275E1  -1.252097440924913E2  -3.111258481051832E1   1.575135685264775E2  -1.348527715111188E1   9.547741145041317E1  
                        
 5.297540540540540E10   -1.351720289257407E1   7.602387678270597E1  -3.106700805255152E1   4.625957824220119E1  -3.370957105027004E1  -6.446918495598233  -3.605352525641244E1   4.243898756527376E1  
                        -3.078813530256371E1   5.049892778324522E1  -1.516615023133794E1  -1.538230412566272E1  -3.594993911518876E1  -1.209151810180223E2  -2.951495188019942E1   1.793982036384295E2  
                        -3.329338672432043E1  -7.574281221320076  -3.609803783659039E1  -1.287729393939898E2  -1.111968078282861E1   5.529578615459113E1  -3.160859778120351E1   4.993903772232071E1  
                        -3.584188781668242E1   4.543928802982090E1  -2.979823701392282E1   1.772328790307943E2  -3.183735080526077E1   4.991321063918241E1  -1.099882373083067E1   6.879024806147548E1  
                        
 5.304546546546546E10   -1.036644786022021E1  -1.054435041505762E1  -3.100205267988576E1  -6.270708107091502E1  -3.394437293868068E1  -1.234436495422825E2  -3.593137178174801E1  -6.507838582323866E1  
                        -3.097532961641865E1  -6.117388726716346E1  -1.725634219404937E1  -4.996999612992014E1  -3.566969292327038E1   1.284145026972001E2  -2.992840799541471E1   1.225793146875910E2  
                        -3.441761109333821E1  -1.254116760531926E2  -3.552989161976188E1   1.241763259485857E2  -1.644548957919168E1   2.191287428171239  -3.154520940247804E1  -5.767183975499122E1  
                        -3.615522765766646E1  -6.659444547215443E1  -2.986441391270120E1   1.208601714881673E2  -3.156746908355079E1  -5.396452034552319E1  -1.320928840675129E1   6.579754846633337E1  
                        
 5.311552552552552E10   -1.449666423712005E1  -8.474863455448761E1  -3.059512942308459E1  -1.721105043697552E2  -3.386564076572578E1   1.182836650632681E2  -3.582216612757137E1  -1.720669409034180E2  
                        -3.077959281437728E1  -1.639504842902931E2  -1.810088507045704E1  -8.675670807970319E1  -3.557695286521122E1   1.783459484100945E1  -3.091171432240314E1   6.477227013089548E1  
                        -3.429564504169625E1   1.175738646760078E2  -3.538929743661198E1   1.436151279946555E1  -2.127819241023253E1   1.330456736959631E2  -3.124758279411065E1  -1.689300368139086E2  
                        -3.649958425469506E1  -1.758934005455981E2  -3.105562043657998E1   6.323417379098387E1  -3.096036298781921E1  -1.651411952615970E2  -1.610857054060414E1   1.353215601698401E1  
                        
 5.318558558558558E10   -1.822650220812726E1   9.386225013856189E1  -3.008108678813568E1   7.434613659215574E1  -3.485981089224809E1  -3.137279628932932E-1  -3.581251904844474E1   7.471808765549152E1  
                        -2.978238139473221E1   7.939612768800825E1  -1.769862703043868E1  -1.432288733816965E2  -3.576902036896566E1  -9.270121110181094E1  -3.263639330336893E1   1.141696387498726E1  
                        -3.466694462471609E1  -1.346571899710714  -3.555760223925226E1  -9.915594583166951E1  -1.195229914467296E1   6.210716837205642E1  -3.097833740004948E1   8.124529614884594E1  
                        -3.570887094832285E1   7.993906198786806E1  -3.277187439728622E1   1.127998449124034E1  -3.101322416201807E1   8.684200531295153E1  -1.297336152331708E1  -1.287976018141622E1  
                        
 5.325564564564564E10   -1.118766738794147E1  -3.124993656240839  -3.047171005555429E1  -3.915194430902384E1  -3.468055414321059E1  -1.150725851202408E2  -3.556179305883026E1  -3.906770818960035E1  
                        -3.073580194345048E1  -3.833110374819303E1  -1.511756725774398E1   1.653929295510382E2  -3.545051286584426E1   1.569387578390079E2  -3.493819582478294E1  -2.987665081858668E1  
                        -3.497880268542556E1  -1.148827898718250E2  -3.584945271716614E1   1.535450168034736E2  -1.266764585243435E1   1.169667337680805E1  -3.084926389985855E1  -2.724674352902072E1  
                        -3.558303105857579E1  -3.829048678089804E1  -3.490268512940487E1  -3.244913531465414E1  -3.108188673935779E1  -2.405907860210945E1  -1.824709610886019E1  -4.178606062743723E1  
                        
 5.332570570570570E10   -1.272854569611595E1  -8.061552484248864E1  -3.088080111208186E1  -1.495539187411011E2  -3.497678498545908E1   1.286033880061972E2  -3.515703511238129E1  -1.467660595150376E2  
                        -3.163959488420317E1  -1.447495630655005E2  -1.276075009715489E1   1.236069379466066E2  -3.559135785942321E1   4.643901457848853E1  -3.541891083066228E1  -5.971268434671099E1  
                        -3.570218395587472E1   1.302359699172165E2  -3.571603348342333E1   4.436504582303102E1  -4.932678995189711E1  -3.215256819898627E1  -3.049788582402994E1  -1.424820813472283E2  
                        -3.568266125627954E1  -1.457964143511168E2  -3.556770555726487E1  -5.915827229603769E1  -3.048396748542089E1  -1.385143239400895E2  -1.430293957521187E1  -1.393560067886872E2  
                        
 5.339576576576576E10   -1.641889529638488E1   1.548355761710147E2  -3.173830566809059E1   1.004669326928240E2  -3.477666613720562E1   1.310024146745944E1  -3.561508412563302E1   9.878716931536772E1  
                        -3.161772860283286E1   1.072891147005836E2  -1.159498233640417E1   9.391618833892809E1  -3.593967094045090E1  -6.576019815007935E1  -3.362794187942703E1  -9.893230826443602E1  
                        -3.502322512861866E1   1.207217099928323E1  -3.584759521645683E1  -6.801770275929347E1  -1.378046929964693E1   6.572576622172014E1  -3.094379996991084E1   1.037000120863918E2  
                        -3.565046934373583E1   9.993650181501219E1  -3.354148335487447E1  -9.871767070867739E1  -3.121281443071382E1   1.084181204628166E2  -1.312473476855331E1  -1.579862441789236E2  
                        
 5.346582582582582E10   -1.333682280502050E1   2.278775513006886E1  -3.237031207010468E1  -8.110328091272534  -3.554004420023649E1  -1.048828766404794E2  -3.599062011641699E1  -1.510522039252761E1  
                        -3.267495621401129E1  -7.006114280369555  -1.142924435981180E1   7.040905663157557E1  -3.655953630990760E1  -1.723548533811202E2  -3.237336947029755E1  -1.503593596824254E2  
                        -3.566329316407092E1  -1.034466501287477E2  -3.671140374445748E1  -1.750309586373897E2  -1.110896275826472E1   8.525300871461120  -3.200686419578171E1  -7.587661567344346  
                        -3.595693355001676E1  -1.281255718492087E1  -3.226862636378966E1  -1.495064262386018E2  -3.187507297643180E1  -3.763811317857523  -1.379576457464409E1   1.400776873307028E2  
                        
 5.353588588588588E10   -1.295432970720016E1  -6.418382678672874E1  -3.232070755268563E1  -1.145925550762484E2  -3.564884610089452E1   1.403346723140666E2  -3.704923172425748E1  -1.257425131098373E2  
                        -3.303458805897134E1  -1.082089215274148E2  -1.197187891002090E1   4.819677231835617E1  -3.613612525361063E1   7.731048070917436E1  -3.170912516143567E1   1.537480102025534E2  
                        -3.592933471210925E1   1.388226510760787E2  -3.642293660136720E1   7.587058505841863E1  -1.878246787366278E1  -4.873558819317663E1  -3.234470578516441E1  -1.153929898909512E2  
                        -3.691493385401090E1  -1.232988010323867E2  -3.114730138675831E1   1.519043720824458E2  -3.263406114180374E1  -1.123055909602121E2  -9.431795108981133   1.145399611758775E2  
                        
 5.360594594594594E10   -1.709888672069290E1  -1.649254211588017E2  -3.241080438466277E1   1.397736931810991E2  -3.589605629203565E1   2.777869356406600E1  -3.743842581623144E1   1.262469817431553E2  
                        -3.261323817513227E1   1.469105644349700E2  -1.270346903087581E1   1.922211859622787E1  -3.636155405389907E1  -2.886513808792644E1  -3.153243628816420E1   9.555819046603533E1  
                        -3.682743212430611E1   2.404594109727890E1  -3.612971533027231E1  -3.361211870929279E1  -1.933852960691901E1   8.018803924472199E1  -3.310847592198597E1   1.339666373598592E2  
                        -3.741650171949779E1   1.306799662642757E2  -3.137587538952353E1   9.558268529912928E1  -3.288910605686538E1   1.396365222376771E2  -1.042023289311207E1   1.025466346437591E2  
                        
 5.367600600600600E10   -1.496547928612916E1   4.930158152458748E1  -3.262718340828317E1   3.110603742111695E1  -3.605501119448415E1  -8.332064468852299E1  -3.819246573573934E1   1.859391769157902E1  
                        -3.293808747750234E1   3.673754804272904E1  -1.359353110118942E1  -1.592178125023590E1  -3.744078126458629E1  -1.409034469798655E2  -3.232383529177563E1   3.884908349954678E1  
                        -3.579665905950900E1  -8.533944131608750E1  -3.751941446872520E1  -1.423739326549207E2  -1.198260452033475E1   1.040266124206623E1  -3.379989028021706E1   2.799023152118626E1  
                        -3.796797226101891E1   2.003022280936056E1  -3.224726174274488E1   3.875562870194570E1  -3.354178269368669E1   3.309008258978589E1  -1.089107582287395E1   5.236922843433283E1  
                        
 5.374606606606606E10   -1.223792047824008E1  -4.681862415772299E1  -3.207218303645755E1  -7.758034170217222E1  -3.532042291257626E1   1.620028009147634E2  -3.783829740744245E1  -8.746509762879001E1  
                        -3.239719007730539E1  -7.297730503125007E1  -1.427105387638759E1  -6.405586853103476E1  -3.672757644612783E1   1.177186299729288E2  -3.345136235903632E1  -1.527010381882999E1  
                        -3.512061424632675E1   1.587900345589257E2  -3.685538207572452E1   1.118748694707948E2  -1.354589869997962E1  -4.948825759505082E1  -3.389249233152658E1  -7.399534329952968E1  
                        -3.823056661891545E1  -8.058792275806819E1  -3.395009014350019E1  -1.751053529969660E1  -3.377846771743588E1  -6.585378028782135E1  -8.596428496451786   2.872303349923014E1  
                        
 5.381612612612612E10   -1.389549820998705E1  -1.395590267059043E2  -3.154777035852908E1   1.738833107841789E2  -3.377965519773584E1   4.432265820359940E1  -3.784847710596795E1   1.707269644206532E2  
                        -3.177734585557887E1   1.775068005795278E2  -1.346488304800169E1  -1.186886779439112E2  -3.604143219361581E1   1.081710154282501E1  -3.582359703440061E1  -6.741131637493794E1  
                        -3.413151222072177E1   4.461877381880397E1  -3.593897620243858E1   8.809647668683298E-1  -2.821388090503229E1   1.579866016585361E2  -3.329592055166607E1   1.788932277154158E2  
                        -3.831750991179689E1   1.761816654317028E2  -3.596034215556087E1  -7.016081160197123E1  -3.319071368204840E1  -1.784155018202750E2  -1.132395570428589E1   1.251570872068367  
                        
 5.388618618618618E10   -1.559339907508575E1   8.952481244131855E1  -3.139807523472679E1   5.970376449912413E1  -3.345502665709897E1  -8.002001622800187E1  -3.749311079081132E1   5.841870227383384E1  
                        -3.136974113041787E1   6.576859681857556E1  -1.220261796806039E1  -1.652700235117405E2  -3.611029248284267E1  -1.034296387789921E2  -3.829875597697090E1  -1.075351869891718E2  
                        -3.308790946870803E1  -7.701937325599909E1  -3.599248111674156E1  -1.105739326209080E2  -1.431683399972754E1   1.084616253655346E1  -3.291559773009113E1   6.973001196609609E1  
                        -3.732423563629237E1   6.430705086745370E1  -3.889102506123687E1  -1.141752878470061E2  -3.277025809991531E1   7.539661455664511E1  -1.066987394060576E1  -6.187950463029612E1  
                        
 5.395624624624624E10   -1.507745427592759E1  -2.687451275281403E1  -3.178460323828342E1  -5.598349456775066E1  -3.317990102574811E1   1.583864129101098E2  -3.740168723449622E1  -5.296252137109689E1  
                        -3.172017150554747E1  -5.205034623450536E1  -1.180648521774865E1   1.529633967380905E2  -3.602023825357303E1   1.458059853829691E2  -3.931122711415056E1  -1.271897952560182E2  
                        -3.358048821752004E1   1.562218941972308E2  -3.651187130360268E1   1.412658256126015E2  -1.223135356844431E1  -5.182984114715409E1  -3.223285524630651E1  -3.923972724128360E1  
                        -3.681432891318481E1  -5.210986563187627E1  -4.043322640427741E1  -1.335348537556946E2  -3.240707933483311E1  -3.813664284068921E1  -1.100262676322852E1  -9.101906899762281E1  
                        
 5.402630630630631E10   -1.489571227667547E1  -1.297216117463152E2  -3.276199882552277E1  -1.674194883809658E2  -3.373354610406749E1   3.703853262367714E1  -3.693313261817845E1  -1.674631183870993E2  
                        -3.295334444588907E1  -1.600689070075326E2  -1.100278171103508E1   1.160464575508729E2  -3.595443651909714E1   3.324194358862278E1  -3.711978650604095E1  -1.715346833724698E2  
                        -3.405551167455757E1   3.796509292471213E1  -3.649070961890969E1   2.797630545491180E1  -1.988812900489577E1  -1.221255335824573E2  -3.184282232621163E1  -1.541707374885802E2  
                        -3.747982961201274E1  -1.602779639904649E2  -3.737825217569364E1  -1.737802217785765E2  -3.216878600457346E1  -1.498179641023681E2  -1.368690303564996E1  -1.622518725114859E2  
                        
 5.409636636636636E10   -1.486184273915531E1   1.230878912581947E2  -3.346221712377378E1   8.515463383536709E1  -3.403289858819630E1  -8.069631044297773E1  -3.742094913501265E1   7.778176087460558E1  
                        -3.342369968346366E1   8.904022883690226E1  -1.027097851907675E1   8.254137630654030E1  -3.655855966418708E1  -7.998571768326228E1  -3.555383983883196E1   1.296840976499273E2  
                        -3.387152109129684E1  -7.678807214995797E1  -3.754251300763775E1  -8.214156676825699E1  -2.010499239883782E1   2.032541131964383E1  -3.271086799025530E1   8.791107160961929E1  
                        -3.783613202945355E1   8.699337510147166E1  -3.547614551137384E1   1.335879056726533E2  -3.253328610750262E1   9.194041171742742E1  -9.001072862963039   1.610800028431700E2  
                        
 5.416642642642642E10   -1.476730956373361E1   7.547349551205148  -3.403698019512328E1  -2.298630028246318E1  -3.383956001142775E1   1.679755316084044E2  -3.797924495124417E1  -3.090037618862922E1  
                        -3.432933183508493E1  -2.137711132401932E1  -9.542840457645696   4.605976552247026E1  -3.862593315541565E1   1.734588947114070E2  -3.508615612727076E1   7.664588212406910E1  
                        -3.395281982782990E1   1.660152666466742E2  -3.803889228718572E1   1.675974863851822E2  -1.268958656668264E1  -5.311294794685165E1  -3.379907299061836E1  -2.239036107125803E1  
                        -3.840111131342771E1  -2.693959209325153E1  -3.517246926048379E1   7.799596727463789E1  -3.386788131668484E1  -2.029947301261529E1  -1.006558076385357E1   1.323648608910909E2  
                        
 5.423648648648648E10   -1.553756417761308E1  -1.091343125202539E2  -3.421054611557857E1  -1.275684294789043E2  -3.295331236287762E1   5.113048211961376E1  -3.860492483420411E1  -1.361953872141539E2  
                        -3.475917881072409E1  -1.190038913307203E2  -8.631172886981718   1.264744971871815E1  -3.805799133658895E1   7.380088504475879E1  -3.608435446812302E1   2.274402336552450E1  
                        -3.336965370627266E1   4.984746908386911E1  -3.826213391266873E1   6.592480995892062E1  -1.510514777307217E1  -1.189096958487100E2  -3.466673434907877E1  -1.290072341980915E2  
                        -3.929919824045342E1  -1.347413145921530E2  -3.607798282192739E1   1.997550056129381E1  -3.478622974380328E1  -1.214084344729960E2  -8.323517751400926   7.952430369323044E1  
                        
 5.430654654654654E10   -1.404969897534759E1   1.407805402413193E2  -3.406269004740935E1   1.288831766357304E2  -3.248888089159826E1  -7.265560414107301E1  -3.990171897513483E1   1.162049954550773E2  
                        -3.414722048634575E1   1.329523068050831E2  -8.762854681608420  -2.246254899479370E1  -3.805694027888807E1  -3.169990222340002E1  -3.664609504422456E1  -2.805018511474370E1  
                        -3.230302661670328E1  -7.298562045078253E1  -3.857620439961179E1  -4.092290006754077E1  -2.761490606196200E1   9.890221406532032E1  -3.565265230119979E1   1.282053567791849E2  
                        -3.972128188909402E1   1.251736597640016E2  -3.681688240981551E1  -3.170036275230190E1  -3.564814868839212E1   1.274567615392331E2  -6.569550137168810   5.928799267022210E1  
                        
 5.437660660660661E10   -1.438813136362480E1   4.427856721206579E1  -3.365076382066803E1   2.341447082172955E1  -3.251405908916796E1   1.605840215224728E2  -3.928992016679839E1   1.516009288339448E1  
                        -3.352725662250144E1   2.798768802443037E1  -9.332310510949275  -6.127155630015671E1  -3.761070854834632E1  -1.438530804274687E2  -3.832539087460129E1  -8.605702858854306E1  
                        -3.234591978584273E1   1.610436707846004E2  -3.788240072330881E1  -1.434690935059625E2  -1.614466616230144E1  -5.188262543357498E1  -3.610415813015436E1   2.664925982684333E1  
                        -3.828776758518461E1   2.406741462085700E1  -3.817673899458612E1  -8.635518607233828E1  -3.637836763273774E1   2.801706630201273E1  -8.665136953765410   2.275490131120217E1  
                        
 5.444666666666666E10   -1.932976278121101E1  -6.381075504299867E1  -3.309564587045085E1  -8.850631912148097E1  -3.285225469403218E1   3.527050028247371E1  -3.926356337045560E1  -9.288392584141583E1  
                        -3.312357711759815E1  -8.240991598848960E1  -1.059204599977024E1  -1.059089042483653E2  -3.778418668420880E1   1.139724660286182E2  -4.024339994498887E1  -1.324563581647979E2  
                        -3.299573905136907E1   3.525538058328680E1  -3.774127818378459E1   1.095741194991512E2  -1.379323100034163E1  -1.222950434507234E2  -3.583147935820769E1  -7.955580123605071E1  
                        -3.896699045527241E1  -8.837965405216153E1  -3.965590596387170E1  -1.391697619495654E2  -3.602115672879702E1  -7.630523018755632E1  -7.270477399940779  -2.096524255702416E1  
                        
 5.451672672672672E10   -1.530585822284685E1   1.502559153637485E2  -3.243187991096500E1   1.584084874359686E2  -3.433915586451328E1  -8.894707125736606E1  -3.882449739798386E1   1.627547008767763E2  
                        -3.255627625566565E1   1.659609034513465E2  -1.139807083550660E1  -1.613232997065190E2  -3.680272968454595E1   1.274536548195527  -4.226757262716413E1  -1.768078064842262E2  
                        -3.383880724710464E1  -8.356966056034746E1  -3.697235673473427E1   3.317301698739017  -1.829146988405713E1   1.649261384739921E2  -3.465508148966774E1   1.764243538892988E2  
                        -3.804702769919464E1   1.658349272870347E2  -4.226152365107490E1  -1.725263679755951E2  -3.482549339665609E1  -1.786474536413714E2  -8.371083285163193  -4.406990224799660E1  
                        
 5.458678678678678E10   -1.287222788696506E1   6.710546257997548E1  -3.280270620829626E1   4.774260360209244E1  -3.531554601690888E1   1.588642873745959E2  -3.787388194164541E1   4.973717797867820E1  
                        -3.237317829533431E1   4.702616748950272E1  -1.105489426466655E1   1.530953619996894E2  -3.605135294397761E1  -1.119394525165406E2  -4.344155979561391E1   1.595989798128114E2  
                        -3.517038528514716E1   1.582749682283400E2  -3.698568784944835E1  -1.208171686652713E2  -2.396720471674148E1  -1.774648373061267E1  -3.327326543751789E1   6.609360669347292E1  
                        -3.759918201253150E1   5.601610292907752E1  -4.313688253559881E1   1.522333949515928E2  -3.371791155585841E1   6.975526632539159E1  -1.134099312057664E1  -1.061256318893249E2  
                        
 5.465684684684684E10   -1.731401413233981E1  -3.006298185240138E1  -3.288415347182013E1  -6.845592884494522E1  -3.664034114229036E1   4.239194334088081E1  -3.741745338305822E1  -6.097489490391245E1  
                        -3.289288076768805E1  -6.143743008295176E1  -9.636213032525808   1.142598588521569E2  -3.690591353356084E1   1.330836433723178E2  -4.259123518270471E1   1.139144863771377E2  
                        -3.589860988297490E1   4.300600918441262E1  -3.761629020820962E1   1.285163227763692E2  -1.407171066218420E1  -1.251732874934667E2  -3.316719840155331E1  -4.887605643161851E1  
                        -3.692887979271283E1  -5.671288910128283E1  -4.226974488130212E1   1.161366271965109E2  -3.324508962143711E1  -4.709094482341637E1  -9.150285916768386  -1.416914835535643E2  
                        
 5.472690690690690E10   -1.838874518907434E1   1.708305336976838E2  -3.393260133224418E1  -1.787724509015035E2  -3.546497477394371E1  -7.312201651766681E1  -3.714104270294720E1  -1.746046652678226E2  
                        -3.395957206310646E1  -1.772708465848508E2  -8.479691124216274   7.960368759654853E1  -3.758131291934385E1   2.216176184011664E1  -4.008144557847869E1   6.610201917365392E1  
                        -3.585938783341622E1  -7.288920480481258E1  -3.818462061323854E1   2.269119611493114E1  -1.353369493861299E1   1.678306009314493E2  -3.350771478489722E1  -1.686277313137612E2  
                        -3.727044254401694E1  -1.748559812706304E2  -4.082523071199228E1   7.008110413600386E1  -3.334733891347035E1  -1.642219003144845E2  -1.190463422485663E1   1.760854638741965E2  
                        
 5.479696696696697E10   -1.336894037649164E1   7.637888447053034E1  -3.480086915404034E1   7.570864020874971E1  -3.561730261709990E1   1.674907500109612E2  -3.822735846138690E1   7.477222666093245E1  
                        -3.550281714776484E1   8.074601335858829E1  -8.000199956605693   4.305421096315876E1  -3.914015216847235E1  -8.097945820380916E1  -3.945473073231414E1   1.441238952434100E1  
                        -3.570480210489397E1   1.639371312836744E2  -3.886918913009430E1  -8.372861934867068E1  -2.151077770004379E1   8.839983540118959E1  -3.445827417710483E1   8.010156625075842E1  
                        -3.844484751162122E1   7.462254450530233E1  -3.989792341893863E1   9.307068694842092  -3.431120626718597E1   8.405241575612209E1  -8.591971261848025   1.154154161845369E2  
                        
 5.486702702702702E10   -1.555558836815007E1  -6.189969746368517  -3.550085558040244E1  -3.069033735155989E1  -3.657041257703040E1   3.722126872571490E1  -3.850137079971825E1  -3.848805508088475E1  
                        -3.512456291493750E1  -2.690471784034836E1  -8.297847381046145   6.801703720254841  -3.935541158873318E1   1.719856962486803E2  -3.935153442520861E1  -3.783948954907149E1  
                        -3.619814099248638E1   3.744320906423544E1  -3.926235483789303E1   1.733729843264292E2  -1.812727748880834E1  -1.258022324027331E2  -3.596670668354952E1  -2.910409245398074E1  
                        -3.809493465729722E1  -3.307457269571632E1  -3.940284241071363E1  -4.098265807966346E1  -3.510434298631042E1  -2.682411801774909E1  -7.198485938782346   9.335842307516144E1  
                        
 5.493708708708708E10   -1.976976950407186E1  -1.655059407031451E2  -3.534934150909692E1  -1.346828895842656E2  -3.779260196738816E1  -8.469085022267787E1  -3.978609145578150E1  -1.456361694935930E2  
                        -3.602378349558573E1  -1.326955156910983E2  -7.976602163100846  -3.112689514811948E1  -4.012685739395635E1   6.507946995000312E1  -3.849862927298972E1  -9.824547639213616E1  
                        -3.918756415681129E1  -8.586234221453675E1  -3.909160646379223E1   6.727538726102509E1  -1.230281621050696E1   1.626825469393444E2  -3.690078809664075E1  -1.373316636744183E2  
                        -3.966173931875994E1  -1.357964965194095E2  -3.887119727296675E1  -9.655125729146384E1  -3.661978159945882E1  -1.339305075012053E2  -8.371766945875887   4.531828909580285E1  
                        
 5.500714714714714E10   -1.192489845811421E1   9.010471156545187E1  -3.538611054454729E1   1.224030559545604E2  -4.146123431743494E1   1.579184982673435E2  -4.005102361790055E1   1.176750623735233E2  
                        -3.565467982171347E1   1.247356426388707E2  -8.714421897406357  -7.008679822332802E1  -3.922059793336366E1  -3.090520226122149E1  -3.927006965714870E1  -1.499438861069499E2  
                        -4.024076915009214E1   1.609802765255161E2  -3.849336077129001E1  -3.325710024665753E1  -1.436918160697874E1   9.895407187253362E1  -3.683264885607844E1   1.285875339193509E2  
                        -3.937675492847615E1   1.177685654748496E2  -3.940114129592875E1  -1.555974265745107E2  -3.671144206939697E1   1.307538550123002E2  -6.557882426141247   1.300821492581540E1  
                        
 5.507720720720720E10   -1.316010433572182E1   1.010274181785649E1  -3.450413467268738E1   1.620194637730891E1  -4.417907841288317E1   5.076654960401412E1  -3.923000736210273E1   1.110685042034057E1  
                        -3.500772968804900E1   2.185261194698220E1  -9.511653870606160  -1.098308674149940E2  -3.749929753295427E1  -1.376571791817731E2  -3.897425298452730E1   1.540974368941236E2  
                        -4.404894354234423E1   6.947896138852038E1  -3.793122292069102E1  -1.449403917453440E2  -2.922697879310855E1  -8.634439838108577E1  -3.608121994098658E1   2.223426193658448E1  
                        -3.866134043676456E1   1.457941967166123E1  -3.926910495228954E1   1.435830401259715E2  -3.687199775367754E1   2.257356978204577E1  -8.470895711085129  -8.991582174888354  
                        
 5.514726726726727E10   -1.755204356378217E1  -1.136966805077584E2  -3.386198057543559E1  -9.368661712047106E1  -4.473783014536058E1  -3.410342469263106E1  -3.843033328448420E1  -9.964294454754899E1  
                        -3.369621725847473E1  -9.047510757538123E1  -1.103646920391886E1  -1.483475270792825E2  -3.715660613833358E1   1.081546683258835E2  -4.081817879791657E1   7.633883822193715E1  
                        -4.448334953346476E1  -3.875575030129305E1  -3.754753705462318E1   1.069419851972786E2  -1.299082608000210E1   1.603296161501555E2  -3.532904982239333E1  -8.157284049462966E1  
                        -3.757589504047287E1  -9.394566832956234E1  -4.140091165860756E1   7.991255855404522E1  -3.561234612168081E1  -7.544027984120628E1  -9.999777324194126  -6.177636346776131E1  
                        
 5.521732732732732E10   -1.527863136448544E1   1.091678536239135E2  -3.351759285296154E1   1.473094530401307E2  -4.292946227345314E1  -1.455545378358234E2  -3.695493144708343E1   1.554499247909140E2  
                        -3.271276433367240E1   1.535993286586836E2  -1.265885526386064E1   1.695698935488094E2  -3.704692640291474E1  -5.334015236600514  -4.489394293484073E1   1.466713499039917E1  
                        -4.316092029217691E1  -1.405901663880649E2  -3.677608860210509E1  -4.724265032413292  -1.199788972909600E1   9.470178990310738E1  -3.489734988460822E1   1.689939403860585E2  
                        -3.692593589886786E1   1.566090524519957E2  -4.560424121577591E1   2.225881426546467E1  -3.457470452202532E1   1.698830105546530E2  -9.075668815483590  -8.304732019322424E1  
                        
 5.528738738738738E10   -1.406730593383206E1   1.451360097494278E1  -3.388278691239000E1   3.349314138478825E1  -4.172053907385860E1   1.117657473337395E2  -3.631806369002490E1   3.839186678570404E1  
                        -3.358638601439495E1   3.880636728635525E1  -1.212577040634014E1   1.148190421632282E2  -3.671600535729672E1  -1.115243655273804E2  -5.537030973086336E1  -2.223254405998715  
                        -4.141623998962432E1   1.048122973920155E2  -3.701138677077743E1  -1.191472376234369E2  -2.096936784064632E1   1.384642646372591E1  -3.348464048706941E1   5.573707481545238E1  
                        -3.602420633328768E1   4.543139542040068E1  -5.392237418541306E1  -1.165356509128749E1  -3.342307679287084E1   5.887660804242913E1  -1.415896695732538E1  -1.155100196165930E2  
                        
 5.535744744744744E10   -1.791871063840539E1  -1.039532506644575E2  -3.388889591253115E1  -7.744298629542523E1  -4.139318762512674E1  -2.854532205146815  -3.606212055106410E1  -7.488598707574710E1  
                        -3.451115094592682E1  -7.183407109561372E1  -1.027041752282949E1   6.720967343592638E1  -3.674150530625689E1   1.336955242192318E2  -4.709271569704438E1   7.430035897404463E-1  
                        -4.102395027426393E1  -5.416319106162920  -3.705530565571439E1   1.264918054340974E2  -1.677236807405246E1   1.560473521491080E2  -3.315003212340280E1  -6.401518151587270E1  
                        -3.613763047670422E1  -7.140981442502397E1  -4.830953197491888E1  -5.828892818569807  -3.362370795043918E1  -5.771533782231265E1  -1.066580022250523E1   1.714739676573033E2  
                        
 5.542750750750750E10   -1.364934366221057E1   1.258659291983738E2  -3.552941464386433E1   1.741123939282234E2  -4.152515743081467E1  -1.097229808418538E2  -3.586773416297084E1   1.691855924612920E2  
                        -3.506899701792153E1   1.741872059201521E2  -8.773285805850620   2.935377593230984E1  -3.795125349732324E1   2.747380608033006E1  -4.263825597460640E1  -5.693781920536523E1  
                        -4.105008784575011E1  -1.127328995180901E2  -3.812110232645661E1   2.573572297211510E1  -1.108580546365888E1   9.041991273750081E1  -3.415993455532499E1  -1.739898574638706E2  
                        -3.604720812358979E1   1.739204960399823E2  -4.254094154627120E1  -5.404914116921178E1  -3.473733240218064E1  -1.750616469508931E2  -1.064073509249990E1   1.471741493105754E2  
                        
 5.549756756756757E10   -1.312917445938640E1   3.462242031866482E1  -3.619488189736476E1   6.757176317621511E1  -4.013550261794921E1   1.432530612581028E2  -3.647686357401009E1   5.920726566175146E1  
                        -3.599361459632028E1   6.690646546309270E1  -7.934863185588438  -4.543100795621200  -3.879881697122794E1  -7.831769187137660E1  -4.099137725305889E1  -1.217010122356385E2  
                        -4.020760257027558E1   1.460875467915585E2  -3.775460403105146E1  -8.085171751711258E1  -1.399581452246093E1   2.118212097868819E1  -3.542556429080160E1   7.374760491921553E1  
                        -3.665914722998427E1   6.050030988957888E1  -4.109440600359068E1  -1.289599399735017E2  -3.541422887016257E1   7.725903474497389E1  -1.128832175296861E1   7.886461628657663E1  
                        
 5.556762762762763E10   -1.602351042294875E1  -7.381677861377884E1  -3.615330804531968E1  -3.441375615029950E1  -3.745574163533518E1   2.615188641023157E1  -3.724640976583560E1  -4.673634984004985E1  
                        -3.663706071061351E1  -3.158346308011378E1  -8.312567022248429  -3.302905897085619E1  -3.829916709482075E1   1.768087761425968E2  -3.931010711902765E1   1.689067094332320E2  
                        -3.832846746221287E1   2.722487122360817E1  -3.736578715675117E1   1.724871889614255E2  -2.920550130958167E1  -1.783407388489837E2  -3.598595811019175E1  -3.417013125506640E1  
                        -3.779205291727974E1  -4.639618440260831E1  -3.952976811909412E1   1.709107698002030E2  -3.640229348994679E1  -3.238851588805606E1  -8.196377073218338   5.278436540209197E1  
                        
 5.563768768768768E10   -1.573998778700840E1   1.556776163964838E2  -3.543582456261869E1  -1.433470959370935E2  -3.621532226350242E1  -9.194070393984629E1  -3.750785652058391E1  -1.554458656436058E2  
                        -3.631030937005079E1  -1.377539262330099E2  -9.474012105878064  -6.058748072477725E1  -3.800921662990276E1   6.769633107490860E1  -3.871901234124437E1   9.758197564541997E1  
                        -3.628871269904289E1  -8.921448938975624E1  -3.764269042446040E1   6.407533034539055E1  -1.195276023448701E1   8.341638627843889E1  -3.683418723424914E1  -1.426520430681749E2  
                        -3.717274837235567E1  -1.531767925613052E2  -3.785599379877041E1   9.953697315595143E1  -3.691863466258925E1  -1.352829279422807E2  -1.058118644589879E1   3.310186114060755E1  
                        
 5.570774774774774E10   -1.474398430017647E1   4.196395787099733E1  -3.593984408104812E1   1.093179135137530E2  -3.458537373023576E1   1.489475948722353E2  -3.775228729461944E1   9.159024544133131E1  
                        -3.588199864558133E1   1.183357401105209E2  -1.137134376323533E1  -8.997127207872612E1  -3.747897462242099E1  -3.482473884324421E1  -3.792978724150252E1   3.081379058738688E1  
                        -3.493900886416179E1   1.475419910871043E2  -3.663443740373555E1  -4.253876655914358E1  -1.175185144433620E1   2.257350219637810E1  -3.671078865129147E1   1.176644230897771E2  
                        -3.781214775576650E1   9.692757736593816E1  -3.853133846564368E1   2.703426708123552E1  -3.738730213746433E1   1.187825708399296E2  -9.999351235791345  -1.680802530079220E1  
                        
 5.577780780780780E10   -1.490297512675815E1  -6.529603043391336E1  -3.483014328117876E1   1.685397879781725  -3.362147364056069E1   2.371501281643314E1  -3.742006954090507E1  -1.398021873657415E1  
                        -3.540949149971434E1   7.724182962956412  -1.315013896753355E1  -1.231877351513005E2  -3.620272819378094E1  -1.454124738860210E2  -3.827916976933015E1  -3.406168715854248E1  
                        -3.394227084412058E1   2.622121669019323E1  -3.579868144410341E1  -1.487950712109395E2  -2.145713356838126E1  -4.002215532287292E1  -3.636775574669286E1   1.122110056993745E1  
                        -3.758613924628437E1  -9.293408525331211  -3.851425362281263E1  -3.463339266806229E1  -3.680386304223243E1   1.569265210937816E1  -8.640009078055099  -2.962116471749830E1  
                        
 5.584786786786787E10   -1.490943556311867E1  -1.685507695594056E2  -3.437524666610828E1  -1.098634878260334E2  -3.335394719200045E1  -1.018562652691732E2  -3.697927698350994E1  -1.214420998024232E2  
                        -3.461463315603916E1  -9.813872619239534E1  -1.411909958297443E1  -1.713333045824694E2  -3.570615945424780E1   9.929471161264027E1  -3.935728218667625E1  -1.004044612010161E2  
                        -3.357314225643015E1  -9.836802822813226E1  -3.597759751767146E1   9.627275185184254E1  -1.515867372584643E1   7.197551988512268E1  -3.611789475859365E1  -9.749314263150919E1  
                        -3.684702998829337E1  -1.157884997887793E2  -3.932849048028128E1  -1.085197280170825E2  -3.576661586660249E1  -9.161323719477734E1  -1.199003857376385E1  -5.714664292340338E1  
                        
 5.591792792792793E10   -1.604194796551929E1   6.426584013098164E1  -3.439502934223526E1   1.382487090506702E2  -3.361660800623861E1   1.379532901904014E2  -3.710559194120525E1   1.280684266407103E2  
                        -3.416442183458538E1   1.403833042330923E2  -1.354118984238537E1   1.313877545984967E2  -3.591421541091746E1  -1.328182292491818E1  -4.193820947686039E1  -1.622355449365180E2  
                        -3.342069935308775E1   1.390519498866156E2  -3.548743294669251E1  -2.049237835245084E1  -1.123841268203245E1   2.093153949579188E1  -3.540671004881752E1   1.563340942432918E2  
                        -3.710255495220637E1   1.330166555412906E2  -4.234074830969392E1  -1.656114157464685E2  -3.585870068430707E1   1.595802572247030E2  -9.984009632703440  -1.121823936870739E2  
                        
 5.598798798798798E10   -1.399112911624035E1  -4.468580869551754E1  -3.440430834312267E1   2.488035978644115E1  -3.321994266866586E1   1.864003518992347E1  -3.627697236647688E1   1.672834466332653E1  
                        -3.452412867050700E1   3.096452968724344E1  -1.300282352583438E1   7.885054533570620E1  -3.566661789057680E1  -1.245489737194977E2  -4.547247075499381E1   1.482264100309221E2  
                        -3.330697026311551E1   1.588732616391157E1  -3.581833802657741E1  -1.278798514150657E2  -1.430902110515907E1  -3.666210223104454E1  -3.476532813104542E1   4.546307910429052E1  
                        -3.648823464662219E1   2.103811460930479E1  -4.422813134021640E1   1.403111662618856E2  -3.477643209777773E1   5.094909263618924E1  -1.092945707816948E1  -1.342797601510240E2  
                        
 5.605804804804804E10   -1.370827434869397E1  -1.364984357147274E2  -3.473645336457962E1  -8.713279114836041E1  -3.253058964757877E1  -1.023041505557332E2  -3.557620246318550E1  -9.558012999781305E1  
                        -3.554676984347057E1  -8.374724072693242E1  -1.216462777390204E1   3.786109769853703E1  -3.608303930209046E1   1.232341297236165E2  -5.011167142149064E1   1.079729546542797E2  
                        -3.283846558860140E1  -1.002265436232594E2  -3.568988072220908E1   1.177170167179781E2  -2.422419983195055E1   6.037382311007681E1  -3.429682542032312E1  -7.262100805033344E1  
                        -3.629642491770733E1  -8.949594121764254E1  -4.705382972730762E1   1.127198570077175E2  -3.438984099117183E1  -6.874676023555105E1  -1.496079308954463E1   1.483477306999782E2  
                        
 5.612810810810810E10   -1.939483611798166E1   1.131117623380342E2  -3.562896156138231E1   1.635101039218445E2  -3.266452188692972E1   1.379571677105294E2  -3.577627185669304E1   1.464473654447532E2  
                        -3.542300756874698E1   1.702208673534762E2  -1.139067272176981E1   4.514127467596478  -3.646204282917263E1   1.309173990519642E1  -4.634319553939653E1   9.905978869244862E1  
                        -3.256225083853703E1   1.359560711717166E2  -3.635976096455847E1   8.417668770459017  -1.170700649972671E1   1.708782781550758E1  -3.497959533625036E1   1.744311030254499E2  
                        -3.581798828263762E1   1.527944946728904E2  -4.599878124552506E1   9.988617218600453E1  -3.509635923542534E1   1.795295353902070E2  -1.066741870216716E1   1.155247460815463E2  
                        
 5.619816816816817E10   -1.535996496276416E1  -5.075316460193120E1  -3.671525680223611E1   5.414373976676759E1  -3.215325937486944E1   1.696684146511977E1  -3.714519362759673E1   3.609574859107347E1  
                        -3.619946387686435E1   6.146257885680977E1  -1.022945291673779E1  -2.504350883812868E1  -3.728712825481775E1  -9.676389964261263E1  -4.127197708130440E1   4.774954825233468E1  
                        -3.228433731170085E1   1.309047049208770E1  -3.687611282912146E1  -1.019084008604283E2  -1.261718107252984E1  -4.259397176804324E1  -3.619496419998753E1   6.288656107112755E1  
                        -3.758650130174308E1   3.622875963773814E1  -4.090924190813277E1   4.594789454339603E1  -3.612381894917627E1   6.859491027307709E1  -1.367708687558107E1   8.800298122562089E1  
                        
 5.626822822822823E10   -1.165572653073528E1  -1.240506395644674E2  -3.678959394063681E1  -4.757197686258090E1  -3.170804730320495E1  -1.056848696347260E2  -3.803078923394281E1  -7.456029069764382E1  
                        -3.775328972866840E1  -4.037295286225054E1  -9.103284832755668  -5.273825381038478E1  -3.691344999877009E1   1.596082091508694E2  -3.923726178789762E1  -1.060853723294177E1  
                        -3.243522815047469E1  -1.010866991021099E2  -3.708258686522483E1   1.496204274975375E2  -2.583193860729623E1  -8.720478932411723E1  -3.689559299431383E1  -4.622493850629398E1  
                        -3.896309333549699E1  -6.522878676251183E1  -3.851114161412222E1  -1.239423571610240E1  -3.644173716259730E1  -3.937865534385048E1  -1.044202362610721E1   2.648753059494212E1  
                        
 5.633828828828828E10   -1.515486411815461E1   1.587035946285751E2  -3.653275813463233E1  -1.519027605329610E2  -3.130805943086276E1   1.299510561291672E2  -3.846182780889733E1  -1.799037276759855E2  
                        -3.637300012311744E1  -1.417014132763134E2  -9.061795449984039  -7.788230761855185E1  -3.766894440867687E1   4.850857999807382E1  -3.713161457996945E1  -7.086552047741891E1  
                        -3.109005082078379E1   1.326085438788438E2  -3.761307504890345E1   4.529023216273919E1  -1.424512029781546E1   1.500050872772544E1  -3.727162815100945E1  -1.538332196156472E2  
                        -3.787419636854439E1  -1.795190982756171E2  -3.725657485725164E1  -7.257855969376938E1  -3.767331790644319E1  -1.458897078897019E2  -8.541159420645709   1.279514812503404E1  
                        
 5.640834834834834E10   -1.769755712698150E1  -3.446694265277004E1  -3.549912091584944E1   1.009423708960161E2  -3.202710640848618E1   6.428907819515423  -3.880034344699992E1   7.771157957109917E1  
                        -3.619064721629468E1   1.034191992442815E2  -9.791878109301964  -1.086319368460719E2  -3.737777494617687E1  -5.423148738838167E1  -3.620037740695494E1  -1.313386203175092E2  
                        -3.270019128168205E1   4.138992089875753  -3.700260919345922E1  -6.179815760996675E1  -1.159274723677014E1  -3.832135365070766E1  -3.755903343709611E1   1.104053913506263E2  
                        -3.956998109822744E1   7.884103969263552E1  -3.572786051430106E1  -1.326776471963383E2  -3.737400682351242E1   1.159987621622964E2  -1.073919277949867E1  -2.729829000595331E1  
                        
 5.647840840840840E10   -1.102336075130073E1  -1.130665492158438E2  -3.565029794448126E1  -4.741286792474576  -3.264449971884843E1  -1.153626804256871E2  -3.969111807340345E1  -2.863854327960247E1  
                        -3.620452146682629E1  -2.874060759304155E-1  -1.194393340711292E1  -1.450382076680884E2  -3.631789049404564E1  -1.628738725297342E2  -3.555456996338987E1   1.719639906756692E2  
                        -3.326012584533276E1  -1.113168104282359E2  -3.656475580624762E1  -1.679608980387732E2  -1.639016507755320E1  -9.890367305377363E1  -3.744186446440261E1   5.438189321561447  
                        -4.015775072695596E1  -1.862885022105947E1  -3.569977418315491E1   1.690679101255833E2  -3.649723665583906E1   1.114317210947142E1  -7.989723347533022  -7.026219037965620E1  
                        
 5.654846846846846E10   -1.268978854398006E1   1.732665304236512E2  -3.483703765205505E1  -1.168346418388755E2  -3.352047620091252E1   1.229688629495365E2  -3.857696877924825E1  -1.299914718453701E2  
                        -3.471508797760962E1  -1.096206133215959E2  -1.577379580298373E1   1.666871495992698E2  -3.620448162385360E1   8.404047101934472E1  -3.561945346499167E1   1.096335341631927E2  
                        -3.285892025821870E1   1.264286317401544E2  -3.602563000331497E1   8.129487152310513E1  -2.063845149253129E1   9.154638663452484  -3.601284523518347E1  -1.015629507949523E2  
                        -3.775898537047456E1  -1.225877964529267E2  -3.578333405098496E1   1.098758144180884E2  -3.637583917148569E1  -9.688698148936811E1  -9.423486270354648  -8.676388025514162E1  
                        
 5.661852852852853E10   -2.287646867254710E1  -5.587817434717411  -3.422031437268073E1   1.271765831401998E2  -3.372010413554775E1   2.611574612282471  -3.723398573022697E1   1.209160966150477E2  
                        -3.405092861564371E1   1.306316190522524E2  -1.702076554425482E1   9.255832269831238E1  -3.648603442235400E1  -2.786154614651399E1  -3.685907487654721E1   4.353947208609921E1  
                        -3.394776521024962E1   4.696739335190602  -3.643177243658066E1  -3.109541626841490E1  -1.240329991873433E1  -4.733720965254093E1  -3.534700324022850E1   1.499705107791015E2  
                        -3.731834787371029E1   1.206900845219315E2  -3.699707247912116E1   4.791266467244316E1  -3.513489121067411E1   1.506284907924976E2  -1.306969053447586E1  -1.490876648206684E2  
                        
 5.668858858858859E10   -1.124909023482740E1  -1.087898873969204E2  -3.528795017244683E1   9.158150772416718  -3.446810598101851E1  -1.134850930791515E2  -3.698555763587068E1   8.803273524606237  
                        -3.557025007641186E1   1.767259723998432E1  -1.411961648850060E1   4.434256252084882E1  -3.645628266701600E1  -1.377600811264834E2  -4.100403174090455E1  -2.396095639353836  
                        -3.431014813208575E1  -1.078989447136592E2  -3.613503916318825E1  -1.422557202812673E2  -1.409056122778906E1  -1.105084783098461E2  -3.491464926579247E1   3.607237916053710E1  
                        -3.752380326590082E1   1.370276853070334E1  -4.075505058311177E1  -8.022438258762499  -3.539966994867547E1   4.151200506593672E1  -1.035792831036463E1  -1.745226024738701E2  
                        
 5.675864864864864E10   -1.080394369364478E1  -1.672369081170343E2  -3.581285673580435E1  -9.841884703708631E1  -3.415944663672556E1   1.280787844812613E2  -3.732771456597512E1  -1.072098491284738E2  
                        -3.594355609830933E1  -8.918665630274892E1  -1.151218684562941E1   1.333418523044148E1  -3.649533241241330E1   1.131826968546673E2  -4.286134352750412E1  -2.285332114088446E1  
                        -3.384022051641094E1   1.328298506009853E2  -3.672726154720188E1   1.069340401553897E2  -4.098951584696430E1   1.409498465283100E2  -3.435439681640211E1  -7.944190886081319E1  
                        -3.701250391311442E1  -1.027422496648839E2  -4.313777255143448E1  -2.240969435612064E1  -3.452295993099287E1  -7.308225467780888E1  -1.559476765976856E1   1.649596807740974E2  
                        
 5.682870870870870E10   -2.830066956054102E1   9.081574700722018E1  -3.640754542324639E1   1.528977403660723E2  -3.423700726526407E1   4.107927048825572  -3.740647565932444E1   1.387873783664950E2  
                        -3.663925378961672E1   1.593393849581291E2  -9.983155131383017  -1.882436361359493E1  -3.751137120871490E1   1.979268182768074E-1  -3.938650805310600E1  -4.633131717271594E1  
                        -3.453934598040019E1   6.258145766512866  -3.704948876108968E1  -4.951086073378468  -1.365109905760918E1  -4.318299982014542E1  -3.483198923694959E1   1.652496176298648E2  
                        -3.710021276863035E1   1.457031709644745E2  -3.976347493828604E1  -4.824937917279426E1  -3.524940349318191E1   1.729204243997776E2  -1.276044076425990E1   7.208053832957570E1  
                        
 5.689876876876876E10   -1.266463452495887E1  -1.004771145271755E2  -3.695516499230872E1   4.713988471801967E1  -3.523104439591722E1  -1.205188524912909E2  -3.778583784696693E1   3.485755814628990E1  
                        -3.723007241964368E1   5.560584032545962E1  -9.912263953470367  -4.943900941446855E1  -3.803066108235353E1  -1.047620475717600E2  -3.569680352850048E1  -1.035260221886206E2  
                        -3.532712704681243E1  -1.154412326818613E2  -3.828722101347654E1  -1.076718029886355E2  -1.326196260876120E1  -1.063238734040204E2  -3.561720282544930E1   5.765076196673675E1  
                        -3.775803630404914E1   3.855775797355447E1  -3.572154810158734E1  -9.728726422243177E1  -3.610105740739986E1   6.193443074305373E1  -1.066816480536058E1   5.854997464136596E1  
                        
 5.696882882882883E10   -1.089873719848186E1  -1.650718199032368E2  -3.702690623621938E1  -5.221479191249595E1  -3.684911116404307E1   1.239651668362081E2  -3.806149108302613E1  -7.027235210396097E1  
                        -3.709524530562123E1  -4.857424948200764E1  -1.029681229681946E1  -8.450251880378464E1  -3.778400228659997E1   1.549577496929670E2  -3.406720196128496E1  -1.578933145490535E2  
                        -3.637492156332903E1   1.225329684257934E2  -3.764613891976811E1   1.441907576186152E2  -2.238436694025800E1  -1.786877165777998E2  -3.662996302037552E1  -5.068601111806282E1  
                        -3.811568164594390E1  -6.894708885529003E1  -3.469790338337972E1  -1.584819152101409E2  -3.615759750473062E1  -4.303171550610513E1  -1.335557689998086E1  -8.769677620239154  
                        
 5.703888888888889E10   -1.789016779674178E1   1.161524151915409E2  -3.624927721304152E1  -1.577922571345209E2  -3.868164786101773E1   2.965259479252906  -3.835371450420939E1  -1.764239845220407E2  
                        -3.574877584856286E1  -1.526648172851051E2  -1.136194787214133E1  -1.188945091742659E2  -3.725372608880826E1   4.691361136195504E1  -3.393683596535821E1   1.458727942422658E2  
                        -3.837763007829383E1   8.244467950709337  -3.728511499428862E1   4.361150393912092E1  -1.649414465256001E1  -3.500213354038066E1  -3.677432133021564E1  -1.555115306858128E2  
                        -3.802454594573277E1  -1.759254908047710E2  -3.376547039274511E1   1.440145080241013E2  -3.661959896406413E1  -1.536700185509443E2  -8.884876158489780  -4.267787919895215E1  
                        
 5.710894894894894E10   -1.737555542491271E1  -8.492460054044790E1  -3.525623567821398E1   9.000424068136894E1  -3.981493692710355E1  -1.028512311460386E2  -3.708457736240038E1   7.851061829489640E1  
                        -3.540786120051874E1   9.357481007559377E1  -1.303409653349226E1  -1.550917828652307E2  -3.679580099768814E1  -5.990401106783711E1  -3.357316594666003E1   8.694303384311401E1  
                        -3.997713987989117E1  -1.061947546403401E2  -3.678612066289152E1  -6.773752256837322E1  -1.390850601565782E1  -1.021137729209486E2  -3.646212559953033E1   9.899888395337257E1  
                        -3.746300936732089E1   7.969597027431558E1  -3.305312972675702E1   8.444803995673171E1  -3.655435084698070E1   1.045803366199589E2  -1.162240081164880E1  -5.601353373083287E1  
                        
 5.717900900900900E10   -1.278383415695778E1  -1.594018065035834E2  -3.494029005577595E1  -2.606147162644194E1  -4.075147684792450E1   1.463680969720419E2  -3.672574945779687E1  -3.232485464648697E1  
                        -3.525170599839661E1  -1.555422376112792E1  -1.551791635768903E1   1.685253176967285E2  -3.641972482709949E1  -1.693771907965227E2  -3.422741898171643E1   2.392278753045797E1  
                        -4.117832558678338E1   1.523495913724500E2  -3.625323451038366E1  -1.773796126693082E2  -1.907890140332430E1   1.791333733004105E2  -3.657155446795218E1  -7.680958579563550  
                        -3.718670057540000E1  -2.803100723940209E1  -3.357764225381661E1   2.310262056702762E1  -3.613676895552051E1  -4.783412474888685  -1.212579152948725E1  -1.206737238421302E2  
                        
 5.724906906906906E10   -1.718042185866304E1   1.285104623175951E2  -3.470086295252244E1  -1.365781537782705E2  -4.037040176082816E1   4.223071847219769E1  -3.639570309414039E1  -1.413632259771738E2  
                        -3.473424368049187E1  -1.330615727908007E2  -1.766421839769642E1   1.286836684749110E2  -3.632928784655201E1   7.571000183449489E1  -3.559006981369243E1  -3.521075904171818E1  
                        -4.025864997291403E1   3.698277529323419E1  -3.563312278551454E1   7.166964947474359E1  -2.254503573111864E1  -2.094809383447646E1  -3.506945835964171E1  -1.173600130667608E2  
                        -3.658539037813508E1  -1.385850271174435E2  -3.559854191579866E1  -3.178350790081343E1  -3.527909367144451E1  -1.153013694061509E2  -9.558570549993030  -1.256469024377196E2  
                        
 5.731912912912913E10   -1.990557666518884E1  -5.708815079042598E1  -3.547795644979838E1   1.099961987343152E2  -3.980369964130053E1  -8.193713847460677E1  -3.547832588871992E1   1.041903932255451E2  
                        -3.571196671605135E1   1.147607524272675E2  -2.021084496409487E1   5.981505039711526E1  -3.554822130146697E1  -3.478624977934063E1  -3.845485376922159E1  -7.591464708055420E1  
                        -4.040588505983335E1  -7.268646794138033E1  -3.620592426708610E1  -4.119316343986788E1  -1.550884770125955E1  -9.597412330718979E1  -3.494347281087651E1   1.274198517725498E2  
                        -3.574750911298643E1   1.090979175443000E2  -3.799490920510618E1  -7.635874843866485E1  -3.468382859921187E1   1.341752534142406E2  -1.553123966777433E1  -1.316788239418981E2  
                        
 5.738918918918919E10   -1.364920342090341E1  -1.472324926311079E2  -3.535552178976036E1  -5.593308499288756E-1  -4.042207259229411E1   1.676908478568082E2  -3.542289742201481E1  -8.717418298855311  
                        -3.600788741613766E1   7.749271394062069  -1.656613131362914E1  -5.961306866440135  -3.601479456071835E1  -1.403902594823353E2  -3.978235033340723E1  -1.012049761707623E2  
                        -4.114248502257959E1   1.657114124860890E2  -3.665072644693054E1  -1.485515689455122E2  -1.698297639820292E1  -1.783263228941602E2  -3.508677479499161E1   1.716791864214781E1  
                        -3.603329915812961E1  -4.329652394678328  -3.934855025001697E1  -1.026970880952738E2  -3.476440545533675E1   2.262653065940698E1  -1.455127265317610E1   1.420163036507196E2  
                        
 5.745924924924925E10   -1.566757833484378E1   1.312816092237802E2  -3.654393020056510E1  -1.083645134804099E2  -4.092850652260042E1   6.204572009395461E1  -3.541933154497956E1  -1.193564535857813E2  
                        -3.644096354621950E1  -1.025344376372230E2  -1.390624991129646E1  -4.364912844926877E1  -3.615514079304252E1   1.085641892830622E2  -3.713070883640695E1  -1.334416621556841E2  
                        -4.161813453406916E1   6.164145078801387E1  -3.632072862116128E1   1.009490771283569E2  -2.238221625881480E1   6.583290021581910E1  -3.513971661921919E1  -9.428031017116146E1  
                        -3.549220637501981E1  -1.096431538610103E2  -3.742618305781625E1  -1.412087466137998E2  -3.462464944272554E1  -8.949500891341353E1  -1.359128628869504E1   1.453509580532611E2  
                        
 5.752930930930930E10   -2.075623444300792E1   1.456571188666445E1  -3.596474002607728E1   1.470382306840862E2  -3.987737332814174E1  -4.919987723230056E1  -3.574857119295173E1   1.306230293779078E2  
                        -3.638362015366273E1   1.543403137499030E2  -1.264433458806406E1  -7.166070565656997E1  -3.620620387200046E1  -1.723945099304641  -3.474393051300769E1   1.717964754309411E2  
                        -4.012460095362999E1  -4.721219616143949E1  -3.635601989943574E1  -5.822349466459085  -1.989375804975670E1  -8.669930805736885E1  -3.562014577561082E1   1.517610284190153E2  
                        -3.541609355536174E1   1.398019280632369E2  -3.471187063962733E1   1.723075383144991E2  -3.516737102918207E1   1.550726537441058E2  -2.826916075372389E1  -1.427417344403034E1  
                        
 5.759936936936936E10   -1.892479474547292E1  -1.170951370161990E2  -3.613951839974857E1   3.738081120837526E1  -3.879206864618303E1  -1.594504757146325E2  -3.573402679914136E1   2.010344820747293E1  
                        -3.555539074014673E1   4.503000211246583E1  -1.251451186612803E1  -9.893042627012733E1  -3.655038585882927E1  -1.110442282583387E2  -3.359236765417266E1   1.192012883412282E2  
                        -3.909979080453548E1  -1.590811877998610E2  -3.587429353121923E1  -1.162884073391620E2  -1.800655810617615E1  -1.761132598059620E2  -3.613897182377981E1   4.474200544581165E1  
                        -3.526690658038853E1   2.496378889511556E1  -3.348249147795283E1   1.177659067769485E2  -3.548853370382324E1   5.015880744873516E1  -1.384370053153259E1   7.584810946127708E-1  
                        
 5.766942942942943E10   -1.773270970554237E1   1.324863765863409E2  -3.564068737960998E1  -7.032874843078299E1  -3.770017622498610E1   8.700800679705658E1  -3.549118612225516E1  -8.971719419884597E1  
                        -3.592730932584979E1  -6.421279747337546E1  -1.429653498315587E1  -1.185946083829182E2  -3.614973812112185E1   1.419888221499386E2  -3.234122693715894E1   5.669468114596118E1  
                        -3.754527236992888E1   8.228296627400786E1  -3.620783768914855E1   1.350492770302474E2  -1.936778084885226E1   7.555581792257782E1  -3.614636799801712E1  -6.157602804291459E1  
                        -3.534662592798960E1  -8.570902179398470E1  -3.304990115155576E1   5.743439000069691E1  -3.632783932190194E1  -5.983822477639090E1  -2.118955577982997E1   6.484351685557845  
                        
 5.773948948948949E10   -1.782766682405004E1   3.527913187525083E1  -3.583977955360906E1  -1.791968673646829E2  -3.587998321510383E1  -3.674923276883919E1  -3.556212884951903E1   1.609473468557619E2  
                        -3.541621280894871E1  -1.725796281282563E2  -1.629308577198108E1  -1.428410585375852E2  -3.537676356271805E1   3.296446216747771E1  -3.277347755157918E1  -1.316752090663575E-1  
                        -3.606982454424786E1  -3.446574976231594E1  -3.604927557498532E1   2.694858071843765E1  -1.972243418253624E1  -4.830290941063551E1  -3.622893155113043E1  -1.722249192026323E2  
                        -3.564631972552654E1   1.622644066979185E2  -3.325439668629131E1   2.855510608935526E-1  -3.555579512740830E1  -1.680240022604585E2  -1.486602946835441E1  -1.013434731732215E2  
                        
 5.780954954954955E10   -1.961295444237740E1  -7.165178548948016E1  -3.507304800622677E1   6.921581241674129E1  -3.529345262550658E1  -1.561787954234272E2  -3.529871182907742E1   5.109783826734351E1  
                        -3.507679444064824E1   7.791694587261824E1  -1.815788067169427E1  -1.702500531585155E2  -3.537771567004189E1  -7.666959758270181E1  -3.371754680801467E1  -5.413003834740223E1  
                        -3.589438566846405E1  -1.555534354818754E2  -3.597535326071049E1  -8.386554746048454E1  -2.025143294599847E1  -1.573032046206631E2  -3.620711328198672E1   8.282015000785793E1  
                        -3.530745659701707E1   5.572280544780373E1  -3.425004718923383E1  -5.572364151518794E1  -3.621309300968571E1   8.735801323903628E1  -1.129731362465763E1  -8.030867656219189E1  
                        
 5.787960960960960E10   -2.207304071618989E1   1.498987312790674E2  -3.555468170436136E1  -4.055306034736999E1  -3.479471241971886E1   8.035283113989598E1  -3.526660827531435E1  -5.831446004793886E1  
                        -3.517073315423222E1  -3.792029361092974E1  -2.123367453636416E1   1.472286452928614E2  -3.572572466741469E1   1.745490029877776E2  -3.660143252955137E1  -1.073683462314787E2  
                        -3.465409694210025E1   7.847358550203624E1  -3.511896483916375E1   1.674849324106139E2  -1.844874119074719E1   8.926174573282459E1  -3.617227577967218E1  -3.012871222427276E1  
                        -3.524075806867018E1  -5.642360805393271E1  -3.583481309309110E1  -1.083596402198102E2  -3.560579942408378E1  -2.051449055859675E1  -1.744699133045906E1  -9.188007085532752E1  
                        
 5.794966966966966E10   -1.669999196645902E1   3.529310319299551E1  -3.517428887169714E1  -1.539820435713589E2  -3.501000412388202E1  -3.973664647724284E1  -3.517651489774045E1  -1.668932392702147E2  
                        -3.508988649676674E1  -1.488132390294603E2  -2.201197883496532E1   9.244837499739678E1  -3.603610101022175E1   6.151090033044351E1  -3.852554704693255E1  -1.479797512924010E2  
                        -3.549022688907543E1  -4.314621973342656E1  -3.536642193532026E1   5.420502876321931E1  -1.812553864442671E1  -1.743511146048759E1  -3.578976769811966E1  -1.350373060646828E2  
                        -3.556728559237718E1  -1.634499201434999E2  -3.903253834851402E1  -1.452307970640568E2  -3.549307626716274E1  -1.350054661576437E2  -1.179441945200094E1  -1.676191363344117E2  
                        
 5.801972972972972E10   -1.666331681057143E1  -3.529501274646423E1  -3.533939873139477E1   9.708297797988375E1  -3.487331654125388E1  -1.604899879543346E2  -3.500761063450978E1   8.211014834984567E1  
                        -3.533757666439433E1   1.026929570793843E2  -2.320089472930332E1   4.613663540909531E1  -3.545558626513378E1  -5.013344677865604E1  -3.910945840421508E1  -1.729515292920575E2  
                        -3.507184008493000E1  -1.593395778684862E2  -3.542938915319682E1  -5.496283288050101E1  -1.810299326917604E1  -1.144485658868806E2  -3.519593618086216E1   1.096148703023995E2  
                        -3.425669040770243E1   8.861799185934288E1  -3.885144840234010E1  -1.795140184387498E2  -3.525274136025987E1   1.167299577159317E2  -1.058731398109706E1  -1.570576881993779E2  
                        
 5.808978978978979E10   -3.072694641340928E1  -1.550042565951224E2  -3.592222249921142E1  -1.545310437660019E1  -3.433383354403302E1   8.092036128982088E1  -3.448870763217514E1  -3.002333770812255E1  
                        -3.567373509089483E1  -1.094504696666116E1  -2.425011083830957E1  -1.162571311937870E1  -3.566964012912808E1  -1.621449298409833E2  -3.724743733369777E1   1.434591415069766E2  
                        -3.489127263096778E1   7.578786158046249E1  -3.551800393379412E1  -1.679924734533595E2  -2.359311640847824E1   1.016550349193516E2  -3.504016663271374E1  -2.864728622630037  
                        -3.458972404543793E1  -2.317173423460532E1  -3.633685456168453E1   1.420592339054431E2  -3.507088145564518E1   3.086303248885270  -2.506061118730790E1   1.692095403672589E2  
                        
 5.815984984984985E10   -1.663825051562894E1   3.619349283347970E1  -3.582806437161373E1  -1.239831890343546E2  -3.469964700043729E1  -3.767433702743908E1  -3.414329057980461E1  -1.390028156324998E2  
                        -3.629736639211554E1  -1.182318759739261E2  -2.295356208609813E1  -5.685628614935381E1  -3.643444704631011E1   9.006246686112587E1  -3.473701356929762E1   9.330813933984419E1  
                        -3.472521107439921E1  -3.951223814714824E1  -3.587046192830925E1   8.687633106563845E1  -1.801315146696559E1  -1.138833338795204E1  -3.482327203983346E1  -1.099062958092698E2  
                        -3.495951773296074E1  -1.325116743389295E2  -3.492195155290735E1   8.989190695362677E1  -3.542015389186512E1  -1.067844613036927E2  -1.391809869348174E1   9.235035023398223E1  
                        
 5.822990990990990E10   -1.551620700605067E1  -2.762625587038389E1  -3.604493085424401E1   1.265650327316422E2  -3.423536663982274E1  -1.597261250352734E2  -3.483209523598356E1   1.104251792823476E2  
                        -3.627368819973513E1   1.306478964153079E2  -2.087363483424679E1  -9.684245868426427E1  -3.607007768580422E1  -1.807469570395726E1  -3.384916190147505E1   3.712138183208639E1  
                        -3.450980968562767E1  -1.576827778922891E2  -3.626519499882376E1  -2.613829227907773E1  -1.796262589069758E1  -1.026360794535567E2  -3.558770137150733E1   1.349412342476585E2  
                        -3.366045312451649E1   1.159005004330354E2  -3.408851823858347E1   3.683720188169887E1  -3.546330508697975E1   1.390586067462687E2  -1.674048402269959E1   1.346336246371837E2  
                        
 5.829996996996996E10   -2.310920219342943E1  -1.057391989561646E2  -3.584141046322691E1   1.781260548076901E1  -3.356589513043667E1   7.853214096039011E1  -3.469282981994333E1  -3.105718809067907  
                        -3.608513544448697E1   2.000638589660456E1  -1.709711140001143E1  -1.310082054494179E2  -3.600045985905329E1  -1.270081334985625E2  -3.393963359347130E1  -2.006551188364136E1  
                        -3.368874717069879E1   7.939687055234906E1  -3.593841003265779E1  -1.358458561587592E2  -2.274413295143733E1   1.455095350439491E2  -3.576424169424809E1   2.600108671998760E1  
                        -3.396197106002335E1   2.870595095257472  -3.436727675413407E1  -2.374580057152988E1  -3.589811654028318E1   3.032418165299120E1  -1.756263351135362E1  -6.227172841698291E1  
                        
 5.837003003003002E10   -1.913567459110821E1   3.807337161706123E1  -3.591834558445198E1  -9.480311549956674E1  -3.371427305261933E1  -5.023770963179261E1  -3.478006622728525E1  -1.093401276647656E2  
                        -3.579790504254113E1  -8.760887936629273E1  -1.455985608158607E1  -1.504605305465261E2  -3.655607384829608E1   1.251039297115840E2  -3.521810367266300E1  -7.622492808971819E1  
                        -3.368137104888689E1  -4.768893273588970E1  -3.644631887821527E1   1.178437726926729E2  -1.791365655232483E1   2.408023317586607  -3.584303438068329E1  -8.409919686599783E1  
                        -3.409374632210363E1  -1.095021740338303E2  -3.536607477596245E1  -7.839649997002388E1  -3.554383559229301E1  -7.854342319311209E1  -1.390529734845250E1  -2.600853820456628E1  
                        
 5.844009009009009E10   -1.439924765340501E1  -2.767316032620404E1  -3.612909254699537E1   1.595010190040227E2  -3.483590192590036E1  -1.673322047874784E2  -3.471296630602888E1   1.376830178498369E2  
                        -3.612743157621654E1   1.646305692817074E2  -1.459161236443596E1  -1.786485820059189E2  -3.599058133210441E1   1.635419927680576E1  -3.744961104013394E1  -1.331462550593015E2  
                        -3.492927901645956E1  -1.707785792682926E2  -3.635756093978383E1   1.328681950208995E1  -1.621181440918466E1  -8.230186606936034E1  -3.627311684537901E1   1.679494209904211E2  
                        -3.436769703207862E1   1.418422302791924E2  -3.706629576787478E1  -1.339959782229987E2  -3.614551430630031E1   1.750526281318257E2  -2.666329163049113E1  -1.301580933991170E2  
                        
 5.851015015015015E10   -1.912241403816978E1  -9.120551594140214E1  -3.595702864792662E1   4.686682834273131E1  -3.617479392260190E1   6.950830358999500E1  -3.496990764879100E1   2.879941199143756E1  
                        -3.562755480623864E1   5.486197404119607E1  -1.563656013769788E1   1.496869778481973E2  -3.587257245448769E1  -9.752910620783422E1  -3.963069262549210E1  -1.731362810769022E2  
                        -3.612003089302882E1   7.339881940592630E1  -3.622319235838483E1  -9.906422446950917E1  -2.138466127954562E1   1.785906640272698E2  -3.654800194259857E1   5.875904522083298E1  
                        -3.433842245774307E1   3.277928353040070E1  -3.967108120076591E1  -1.699183348978047E2  -3.640125467169444E1   6.688364161033935E1  -9.825775709181574  -1.409748765074579E2  
                        
 5.858021021021021E10   -2.147182908941261E1   4.886050846531300E1  -3.604275450770692E1  -6.457711030594399E1  -3.667602623243311E1  -4.645981956011046E1  -3.405418069412667E1  -8.208456128368327E1  
                        -3.639612378315756E1  -6.069398506356504E1  -1.803368576302433E1   1.206205698765296E2  -3.552215107336829E1   1.553108622296050E2  -3.948695975787128E1   1.614805625381115E2  
                        -3.645673741710401E1  -4.611218127926635E1  -3.589396409418352E1   1.497568634993479E2  -2.062750080268107E1   2.517399363208422E1  -3.586161600080885E1  -5.225252959843166E1  
                        -3.401309545386261E1  -8.044969684548633E1  -4.012120016599454E1   1.579146336776233E2  -3.596875042892410E1  -4.625819182410187E1  -1.182741137286063E1  -1.273946723836891E2  
                        
 5.865027027027026E10   -1.384210958598067E1  -1.537142913200932E1  -3.630763032940371E1  -1.752700756070891E2  -3.661996353080370E1  -1.641213216278530E2  -3.460290159245758E1   1.659147355700125E2  
                        -3.674750067920561E1  -1.728819658913624E2  -2.147020054309935E1   7.454210425622954E1  -3.608463524814691E1   4.492757142422114E1  -3.895506040434604E1   1.194161682735487E2  
                        -3.613141434026943E1  -1.585142425437559E2  -3.578565935493516E1   3.649844865658623E1  -1.765275923194870E1  -7.609906714872088E1  -3.547360614346945E1  -1.625569775867657E2  
                        -3.417421799993463E1   1.675669075552025E2  -3.901135451120619E1   1.166267574072025E2  -3.575614863534779E1  -1.551519245609120E2  -1.829385532215107E1   1.299197820409621E2  
                        
 5.872033033033032E10   -1.706116844324667E1  -7.888828852587750E1  -3.665277554411961E1   7.315571957074342E1  -3.641649381438214E1   8.043465641055882E1  -3.421822856624578E1   5.700397109606224E1  
                        -3.662357093992775E1   7.495629494529850E1  -2.195877346872370E1   1.786949291391386E1  -3.634182039311776E1  -6.473449843926048E1  -3.697628716336137E1   7.532058900640384E1  
                        -3.618203989881645E1   7.645516768648817E1  -3.584541540272108E1  -6.992422589616122E1  -1.963234264865837E1  -1.633968004463476E2  -3.628659010206973E1   8.983391555660961E1  
                        -3.344879942668514E1   5.844085506315289E1  -3.692060866644967E1   7.276872532526670E1  -3.623920345414109E1   9.183195835529847E1  -1.021395349078378E1   1.352854042589580E2  
                        
 5.879039039039039E10   -2.724589999024292E1   9.718539075187273E1  -3.636367246488741E1  -3.337013120055220E1  -3.624487575009577E1  -4.111767378236199E1  -3.483276869224211E1  -5.544692569020120E1  
                        -3.677722332948695E1  -2.755832679149447E1  -2.102721980077588E1  -4.272813389377998E1  -3.639930392202709E1  -1.741918237963041E2  -3.707655930058653E1   1.905593189160953E1  
                        -3.647573802710548E1  -4.043209241021281E1  -3.559285745167561E1   1.780201722125056E2  -2.140475319851630E1   7.471200804485088E1  -3.640387355254666E1  -2.625870704369708E1  
                        -3.417287037029965E1  -5.908823712679007E1  -3.637729056174536E1   1.584626321607698E1  -3.676547412131234E1  -1.762698091434287E1  -1.630900947024459E1   1.740069517923126E2  
                        
 5.886045045045045E10   -1.509307517893704E1  -9.140021277089643  -3.744228428863568E1  -1.468162544037009E2  -3.744659422611165E1  -1.652402740289395E2  -3.454953044139873E1  -1.669210929328498E2  
                        -3.641174893058877E1  -1.428009745630888E2  -1.840353033226775E1  -9.449748783940521E1  -3.625043699151017E1   7.500791744744608E1  -3.639154878563284E1  -3.601468954218026E1  
                        -3.708924828954045E1  -1.690984893853419E2  -3.596744846864402E1   6.887091434940422E1  -1.906454553833553E1  -5.864424199291781E1  -3.684173448203429E1  -1.368943128760520E2  
                        -3.507996891064600E1  -1.680644531933219E2  -3.612203048411493E1  -3.988584725225203E1  -3.657872718226832E1  -1.268163178099456E2  -1.717719041794192E1  -1.167530123327812E1  
                        
 5.893051051051051E10   -1.562360340837407E1  -7.359745022208877E1  -3.668044269860440E1   1.053567903337258E2  -3.822159080229900E1   7.318125168601587E1  -3.448630662309155E1   7.923162272872327E1  
                        -3.758751008941039E1   1.102079977401476E2  -1.726527435080573E1  -1.386555852981569E2  -3.696407229929667E1  -3.177399633234560E1  -3.672105888760297E1  -9.078671736146019E1  
                        -3.903215278989140E1   7.535090121186234E1  -3.679548968475680E1  -3.678496246182672E1  -1.861624841303695E1  -1.599345149166149E2  -3.725612357973293E1   1.136499016947470E2  
                        -3.480035943940826E1   8.177520379899318E1  -3.648706177220929E1  -9.294190977186901E1  -3.685333833542712E1   1.201245043568216E2  -1.614621115360874E1   3.115078530863857E1  
                        
 5.900057057057056E10   -3.132703768046855E1   1.653635132830509E2  -3.662953354298363E1  -1.383364106838861  -4.131205420965761E1  -3.144093740080574E1  -3.491457190553889E1  -2.776898480268971E1  
                        -3.703462839823435E1   6.442963145419517  -1.583939253132948E1   1.731719134208389E2  -3.602426910311480E1  -1.367350248598887E2  -3.842625343009529E1  -1.457548966452978E2  
                        -4.146561956195252E1  -4.042020046729873E1  -3.633545070626941E1  -1.482533834057706E2  -1.897047094936620E1   9.944024266233386E1  -3.729773334291398E1   6.412965081175786  
                        -3.486468475739558E1  -2.581743624470179E1  -3.820846414880360E1  -1.423750082549734E2  -3.738718424979472E1   1.266788082824762E1  -1.651355683403375E1  -1.561517990998730E2  
                        
 5.907063063063062E10   -1.633600189861561E1   3.812687927519378  -3.765842369306191E1  -1.127699881236093E2  -4.204309183587204E1  -1.449062528947944E2  -3.449739232421850E1  -1.413681338732077E2  
                        -3.688265391443569E1  -1.103716748764508E2  -1.407979696511600E1   1.402992782721964E2  -3.608790258760237E1   1.094422700532319E2  -3.926256411715269E1   1.703115630697762E2  
                        -4.189008459037794E1  -1.440043760118527E2  -3.625982409682555E1   1.082963875671409E2  -1.999000745582635E1  -1.929126968977003E1  -3.767389631849212E1  -1.011238100998029E2  
                        -3.519313216281490E1  -1.328046187627865E2  -4.029444202943598E1   1.745455365993279E2  -3.742233666166924E1  -9.901812606861543E1  -9.954755399310704  -1.182198275110651E2  
                        
 5.914069069069069E10   -1.378150036156145E1  -5.530574651705944E1  -3.722393730082253E1   1.361043210990054E2  -3.953032432741263E1   1.122079588227669E2  -3.475128910064382E1   1.141470655409393E2  
                        -3.782113958558972E1   1.415909605331416E2  -1.380678675971894E1   1.125551970873160E2  -3.571963950711689E1   2.264288299879074  -4.058033706119688E1   1.359559302879644E2  
                        -4.023252674886602E1   1.067240097723588E2  -3.603633660809721E1  -3.581521629020521  -2.059907815465741E1  -1.430317560946731E2  -3.749374685156370E1   1.497123877226890E2  
                        -3.507770647552562E1   1.155565066145296E2  -3.986790377311333E1   1.343391145969559E2  -3.731846021395617E1   1.539574619847969E2  -2.080808123249072E1  -1.197882726724531E2  
                        
 5.921075075075075E10   -2.291080086851962E1  -1.160246748679611E2  -3.770982945243086E1   2.813213419265316E1  -3.973755327292992E1  -6.300602498109893  -3.477792553021246E1   3.707999224328977  
                        -3.778785130726856E1   3.427748244260231E1  -1.449311508893448E1   8.325948026488250E1  -3.640006077414595E1  -1.109016616182279E2  -4.091785035229803E1   1.037174108421982E2  
                        -3.893607119097313E1  -7.290106938632072  -3.594503618615833E1  -1.162339433281229E2  -1.723866014329100E1   1.141126649726812E2  -3.735479671626087E1   4.080324585236015E1  
                        -3.527532489542944E1   8.069007868295287  -4.127508449079132E1   9.543117756307910E1  -3.715824111286830E1   4.565834526398549E1  -1.065505318207166E1   1.319045911639873E2  
                        
 5.928081081081081E10   -2.126988877779453E1   1.237352241817483E1  -3.757425501071576E1  -8.526204543565538E1  -3.950935230209755E1  -1.346901601332770E2  -3.496816848721024E1  -1.089574402019883E2  
                        -3.750278978143545E1  -7.455930153558870E1  -1.683268555506606E1   5.760762407638705E1  -3.617909016193292E1   1.392952067641071E2  -3.875381956594323E1   5.723433843895785E1  
                        -3.937037558866730E1  -1.378080978047633E2  -3.599292043647974E1   1.347169410006793E2  -1.914310684582674E1   1.857189221858923E1  -3.743201245403410E1  -7.375190947285226E1  
                        -3.468196540983684E1  -1.027429279115055E2  -3.852519508457132E1   5.770498823762470E1  -3.734382181607710E1  -6.248232265862012E1  -9.530523495703839   1.599906039189137E2  
                        
 5.935087087087087E10   -1.540080421589312E1  -5.522501562437176E1  -3.875712311783795E1   1.636785758214362E2  -4.025065689404806E1   1.064155285062861E2  -3.494515873115031E1   1.365149332940641E2  
                        -3.854068629758661E1   1.693187867309129E2  -2.293121049394475E1   2.062928707982041  -3.636297986120430E1   3.453750341722527E1  -3.766488241778887E1   8.153440308157336  
                        -4.097889858026744E1   1.123927144980299E2  -3.619636963769766E1   2.318417177420348E1  -2.169523099181455E1  -9.887839716149584E1  -3.789743160631539E1   1.789544824557976E2  
                        -3.515881582193089E1   1.450724918912112E2  -3.744598060345834E1   9.453127345722486  -3.785150686319926E1  -1.786586324588417E2  -3.504549821539401E1  -1.726748106955722E2  
                        
 5.942093093093092E10   -1.848541252804445E1  -1.229569431616788E2  -3.776407827334960E1   5.815110418275880E1  -4.122169386930667E1   7.581527951113959  -3.553248248067654E1   2.894651717001420E1  
                        -3.878889253810469E1   6.152275428664866E1  -2.040132629190855E1  -9.257450321270612E1  -3.678828433436022E1  -7.195726551736404E1  -3.658829590434923E1  -5.039956573171365E1  
                        -4.118508914777767E1  -5.750643380875503  -3.621685648584840E1  -8.446685701991295E1  -2.041107132339829E1   1.122833781550740E2  -3.791748492418994E1   6.844464123478187E1  
                        -3.522563750990415E1   3.575206549340952E1  -3.632366564256714E1  -4.908196760757552E1  -3.835836806271843E1   7.264963254243894E1  -1.200231977850992E1   3.652068071311846E1  
                        
 5.949099099099099E10   -2.609005724795815E1   5.517067197190202E1  -3.828651375997350E1  -5.434851224459801E1  -4.224363958678228E1  -1.080348839565933E2  -3.503533230943837E1  -8.663060664195184E1  
                        -3.943729294222255E1  -4.774418218233841E1  -1.559276640241763E1  -1.448465259001689E2  -3.661274268277552E1   1.750729711825914E2  -3.591474959926105E1  -1.018575743228674E2  
                        -4.128871725343580E1  -1.121074181850908E2  -3.625049448363247E1   1.678351310732415E2  -1.757975662039696E1   3.699741593185112E1  -3.874844364575299E1  -4.472053572410537E1  
                        -3.581534889003837E1  -7.521003211151158E1  -3.648514628356003E1  -1.043449207066193E2  -3.850101610732153E1  -3.228883049984166E1  -1.496725231915660E1   8.412912188417002E1  
                        
 5.956105105105105E10   -1.605146423646813E1  -4.148304635156180E1  -3.907800074385879E1  -1.591996881868388E2  -3.874573561108546E1   1.315369207207268E2  -3.541961072576936E1   1.663162288790518E2  
                        -3.879043532967091E1  -1.549110810079243E2  -1.304525364861354E1  -1.790798038011849E2  -3.602481916162479E1   6.824857024654376E1  -3.709142192096311E1  -1.593942058554978E2  
                        -3.987211994673505E1   1.319451629393871E2  -3.667661975410570E1   5.950495899122913E1  -2.040863459944031E1  -6.658153766805779E1  -3.964029277867634E1  -1.497421477272157E2  
                        -3.545464635237164E1   1.740866200148102E2  -3.711690398115747E1  -1.604902331390923E2  -3.874727339283862E1  -1.438345171740094E2  -1.325622989315975E1  -1.195335079809920E2  
                        
 5.963111111111111E10   -1.573158690404429E1  -1.139656809575566E2  -3.864369679709242E1   8.945555936145880E1  -3.831890535465268E1   1.383280133407532E1  -3.554204757072588E1   6.137285717321436E1  
                        -3.939937408817814E1   9.344091216891027E1  -1.208078393800549E1   1.547181118543786E2  -3.594497946730417E1  -4.177256029946567E1  -3.853014672479703E1   1.450012792692714E2  
                        -3.794450433519113E1   1.638109901603727E1  -3.643952081798542E1  -4.902444178685830E1  -2.569173233167296E1   1.531490965179253E2  -3.824525764884005E1   1.036126883351612E2  
                        -3.561665432944530E1   6.748033429142652E1  -3.982662810758474E1   1.462082720250110E2  -3.885002141504042E1   1.046045317180194E2  -1.144969182199088E1  -8.529079647036315E1  
                        
 5.970117117117117E10   -2.200160339610548E1   1.544840344930164E2  -3.924401463101950E1  -1.600432634289547E1  -3.773597125866093E1  -1.050379657010800E2  -3.553222427092858E1  -4.908942357290875E1  
                        -4.000614386447404E1  -2.002506291918358E1  -1.233826381648209E1   1.241211901889724E2  -3.602472078862761E1  -1.542258850710296E2  -4.088772669006567E1   1.046232399981465E2  
                        -3.815260572180107E1  -1.136450197222779E2  -3.583156498805310E1  -1.598546666232771E2  -1.669650233898643E1   2.820052464323902E1  -3.881015366865626E1  -9.511359707458565  
                        -3.539569166314057E1  -4.455008567485928E1  -4.059314439943563E1   1.093103728221272E2  -3.892523322373780E1  -5.874587041241636E-1  -2.125443430722840E1   1.364657035429729E2  
                        
 5.977123123123122E10   -2.290189168997468E1  -2.065457383045985E1  -3.927061673671584E1  -1.327579021320978E2  -3.820427729102638E1   1.200229975819281E2  -3.618715292881405E1  -1.608469291919651E2  
                        -3.979939744094557E1  -1.296799654337957E2  -1.281066194534698E1   9.481607442759740E1  -3.584353519506005E1   9.419491269173652E1  -4.051157679976554E1   8.116177122640450E1  
                        -3.870429617921338E1   1.186510222011738E2  -3.672859988306993E1   9.676553242331895E1  -1.687933948834733E1  -5.755536037580719E1  -3.887999738033999E1  -1.137686019124238E2  
                        -3.498056257972002E1  -1.569852038801445E2  -4.121395337126630E1   7.905350941744861E1  -3.959726855911028E1  -1.124299420943794E2  -7.771324036482613   1.586375852652166E2  
                        
 5.984129129129128E10   -1.673480411093991E1  -1.256082657353550E2  -3.936556047867216E1   1.285791328460428E2  -4.044487408460184E1   8.957573043044580  -3.655612241626577E1   9.173036195420762E1  
                        -3.939172712516945E1   1.245533543795328E2  -1.427226406563503E1   5.818585982472285E1  -3.594643886661189E1  -9.754492140145494  -3.910625741659345E1   4.032498007755209E1  
                        -3.965218453037305E1  -7.780250436217012E-1  -3.707066940914670E1  -1.915936461925297E1  -2.118211888883765E1  -1.474269434389330E2  -3.897598258345025E1   1.342171560203711E2  
                        -3.582044645938623E1   9.299431428498940E1  -3.909418280630725E1   4.339974584064333E1  -3.803485463567119E1   1.376370198105923E2  -1.140606278857477E1  -1.758555271191500E2  
                        
 5.991135135135135E10   -1.660244130203096E1   1.592641572676097E2  -4.015018206561354E1   5.876038641724119  -4.176382135291992E1  -1.065329447758964E2  -3.680613546530652E1  -2.415135012731928E1  
                        -4.107378277362788E1   2.162959932259071E1  -1.607392032499453E1   1.089062050586558E1  -3.653240795856435E1  -1.218523622030119E2  -3.697207393120840E1  -1.193554605335555E1  
                        -4.103822658741848E1  -1.008571776142150E2  -3.586057241962948E1  -1.299006233914748E2  -1.976972253218965E1   4.151269248128675E1  -3.929073467619161E1   1.871141243390089E1  
                        -3.634045872295750E1  -1.574300494271399E1  -3.687951497313899E1  -6.768548992712478  -3.893102484386942E1   2.459683155315233E1  -1.498518313746465E1   4.889645727515159E1  
                        
 5.998141141141141E10   -2.598191812502589E1   2.540000165942820E1  -4.033644700593568E1  -1.002936955270007E2  -4.052568397187822E1   1.411629873161094E2  -3.618287465643715E1  -1.300830517194771E2  
                        -3.987970571247637E1  -9.375186838905742E1  -1.625212586362777E1  -3.170366942242209E1  -3.664624950921255E1   1.301373672358033E2  -3.546358600625074E1  -6.159491072791753E1  
                        -4.145773976069660E1   1.384191867999672E2  -3.650795661535372E1   1.189181376410990E2  -1.569644134435632E1  -4.191269889810762E1  -3.956669010372975E1  -8.302549961696799E1  
                        -3.581300785883826E1  -1.275462878358664E2  -3.534194862042281E1  -6.112644899989649E1  -3.975666762251141E1  -8.194526916195387E1  -7.426782400742912   7.113484245434827E1  
                        
 6.005147147147147E10   -1.637646864568081E1  -1.164814149172526E2  -4.105533350676760E1   1.635745835089070E2  -4.001326324522405E1   2.077537465541247E1  -3.640193235326859E1   1.244102553763642E2  
                        -4.045493986457056E1   1.618177723576233E2  -1.727338106330910E1  -8.733858907497019E1  -3.568153083586034E1   1.902700942959875E1  -3.520089117298599E1  -1.216012621807033E2  
                        -3.989101307180117E1   2.175370097615091E1  -3.606950856441321E1   9.853870466237790  -1.739718041301400E1  -1.235321774229823E2  -3.987719549537896E1   1.690855370868533E2  
                        -3.649625165396209E1   1.276892438503411E2  -3.531277632444742E1  -1.194415653654781E2  -4.025098590767409E1   1.698292712813722E2  -1.653820651978243E1   1.176107421883240E2  
                        
 6.012153153153153E10   -1.353067045988657E1   1.689310471891580E2  -4.021147704811036E1   5.373039988133925E1  -3.860692472627252E1  -1.081608417703217E2  -3.763269059674503E1   1.713471956989105E1  
                        -4.045427417573725E1   5.626818039626751E1  -1.599888323824951E1  -1.542474134716000E2  -3.648039197765513E1  -8.927512064737722E1  -3.510575260189242E1  -1.753586810257688E2  
                        -3.884119218398249E1  -9.748291384600123E1  -3.597107886490902E1  -9.700953597504308E1  -2.924168128021103E1   6.450225735496422E1  -4.087667343141786E1   6.414191378425375E1  
                        -3.665996181868724E1   2.089309735520543E1  -3.568673166764493E1  -1.764986528164087E2  -4.087513743302714E1   6.324987300318196E1  -1.046724078274401E1  -6.577409156572581E1  
                        
 6.019159159159158E10   -1.895132502955036E1   9.292972153570341E1  -4.048834630761691E1  -5.422504124905510E1  -3.896283048734846E1   1.317466753327918E2  -3.710689004874555E1  -9.577666755078958E1  
                        -3.965455364880325E1  -5.221969537036824E1  -1.331011324754098E1   1.626441662726022E2  -3.605818998060158E1   1.599114080065986E2  -3.716621124936215E1   1.301737637503797E2  
                        -4.040686709474745E1   1.251745883126425E2  -3.577088038975261E1   1.548886076846824E2  -1.520801422681406E1  -4.006970518784975E1  -4.066848900811826E1  -5.009466716556246E1  
                        -3.647105117139380E1  -9.123394433479045E1  -3.677408654176620E1   1.307950903611557E2  -4.068761405752522E1  -4.553611583615482E1  -1.135116832680585E1  -2.953503318068368E1  
                        
 6.026165165165165E10   -1.901780929438522E1  -1.120189210287759E2  -3.973599455725513E1  -1.711609628030258E2  -4.150990622655403E1  -3.153696466247035E-1  -3.633492785906641E1   1.565389373108877E2  
                        -4.018507647852600E1  -1.637317044738475E2  -1.184662955434153E1   1.304641637027384E2  -3.626627905264889E1   5.213180208813325E1  -3.739469867036657E1   8.433721777264913E1  
                        -3.996500830007325E1   2.316741287158155  -3.598096192987337E1   4.197602809720937E1  -1.491064602740072E1  -1.170136626448027E2  -3.999347194980525E1  -1.542930637966831E2  
                        -3.603913010070291E1   1.568618500162084E2  -3.846195956178291E1   8.021534854896336E1  -4.009262826062423E1  -1.523272402068069E2  -1.488194058041075E1   1.507952504400587E2  
                        
 6.033171171171171E10   -1.230925364875898E1   1.764810788031370E2  -4.040926849467864E1   7.842970480128200E1  -4.326310815772340E1  -1.165818764765852E2  -3.661091320541828E1   4.971314284529431E1  
                        -3.956102259408022E1   8.978721888191829E1  -1.097231112841641E1   1.031980859174045E2  -3.562464141779742E1  -6.355526488963228E1  -3.868593208114850E1   4.564749298630101E1  
                        -4.290058776323172E1  -1.158461104031460E2  -3.562547777621193E1  -6.569868409653174E1  -2.230383015329501E1   1.785514489532608E2  -3.979068406561670E1   9.835329056738476E1  
                        -3.622995878034111E1   5.254825760278867E1  -3.870038338820733E1   4.386459294450319E1  -3.933251940401579E1   1.018132974206496E2  -7.021990679048948  -1.631058418109064E2  
                        
 6.040177177177177E10   -1.461339691725506E1   1.177798424409618E2  -4.019773707113969E1  -2.900732988070231E1  -4.577726054647078E1   1.251339544877472E2  -3.644778616743319E1  -6.974272809233857E1  
                        -4.100687476335187E1  -2.366140169506371E1  -1.056785631629727E1   7.965758453857160E1  -3.605558800462240E1  -1.725266190183686E2  -3.785223910303100E1   8.707635683096369  
                        -4.703249064398661E1   1.198281518675855E2  -3.595889512285314E1   1.769991598535432E2  -1.707686414552525E1  -4.814744936156491E1  -3.909388603431254E1  -1.826985702576706E1  
                        -3.650305156540445E1  -6.255646752793694E1  -3.879017022775031E1   9.123171231344148  -3.936375934778238E1  -1.433239573235363E1  -1.403834881045753E1  -1.210071497823867E2  
                        
 6.047183183183183E10   -2.377952915448897E1  -1.242629708532614E2  -4.022281462920937E1  -1.341380448844374E2  -4.606028550114530E1   1.658085455218927E1  -3.609604117090844E1   1.793453058908091E2  
                        -4.063133993502242E1  -1.347818641772980E2  -1.262879567777519E1   4.986740762308450E1  -3.671336943086480E1   7.852930994158862E1  -3.701070195121641E1  -3.997289788779905E1  
                        -4.805297815325510E1   2.570442149470169E1  -3.632109657802025E1   6.870645339181986E1  -1.410531921005676E1  -1.103163075807047E2  -3.952868189754657E1  -1.355394750003945E2  
                        -3.622032335831533E1  -1.746848737547422E2  -3.688813741241600E1  -3.414139260423513E1  -3.976232419571443E1  -1.252736753792649E2  -1.013032100618024E1   7.331179902898664E1  
                        
 6.054189189189188E10   -1.189823526739803E1   1.788007266903531E2  -4.069924713154489E1   1.117136640994488E2  -4.740101618939190E1  -1.037479475150779E2  -3.611009620721005E1   7.668639189640878E1  
                        -4.070397942911190E1   1.119354332676044E2  -1.487070933761210E1   7.883965043363223  -3.670363211836951E1  -3.298228305254538E1  -3.520371404894267E1  -7.591952454337498E1  
                        -4.691645234410928E1  -1.008102247988797E2  -3.653658566756938E1  -3.782197900750205E1  -1.574222425549611E1  -1.768534298153162E2  -3.913212047707049E1   1.302486441093838E2  
                        -3.599949042239383E1   7.206772476702767E1  -3.517164755372406E1  -7.983976017637558E1  -3.915587691394627E1   1.278796428466638E2  -5.791928911575563   1.173085636872689E2  
                        
 6.061195195195195E10   -1.253361728095454E1   1.256141179799169E2  -4.092803798143253E1   4.554786002282099  -4.641275155479226E1   1.272392068378191E2  -3.774800968580006E1  -3.277108233973960E1  
                        -4.040787747785252E1   6.948812014881391  -1.625780696274790E1  -4.688761641940263E1  -3.666389350620282E1  -1.405566850052320E2  -3.477428082603178E1  -1.398226943566849E2  
                        -4.701660098973593E1   1.499085076387404E2  -3.636486041467131E1  -1.464015459341184E2  -2.486338115884935E1  -6.259720177091662E1  -4.054243763564239E1   1.130862736557378E1  
                        -3.708232711896784E1  -3.306376155065631E1  -3.420367135309155E1  -1.397482205497807E2  -4.069105721069678E1   1.464458449567885E1  -2.093594960808160E1   1.730855532790797E2  
                        
 6.068201201201201E10   -3.099802470083201E1   9.043568951343762E1  -4.054850002260176E1  -1.025407867564654E2  -5.311276268189083E1   1.960579549294443E1  -3.735221742082973E1  -1.477095468874154E2  
                        -4.043725655932061E1  -9.483859469192919E1  -1.638059242543546E1  -1.038378101465169E2  -3.619587218010963E1   1.068573600927768E2  -3.441514464764568E1   1.639268048463171E2  
                        -5.005752511236827E1   2.560347203944270  -3.642098800605397E1   1.062281431371233E2  -1.468706954295967E1  -1.097077262588325E2  -4.228275078558405E1  -1.002616913537123E2  
                        -3.753489967688538E1  -1.439022781767264E2  -3.417994302305834E1   1.629151463313530E2  -4.085955416962791E1  -8.976195374639336E1  -8.018953979496871  -1.309817751084520E1  
                        
 6.075207207207207E10   -1.265155326740758E1  -1.771763847904130E2  -4.073769142781767E1   1.464869722327425E2  -5.664550115052465E1  -1.666779313471857E2  -3.718035674248549E1   1.006484684129168E2  
                        -4.084779532638325E1   1.526803130287531E2  -1.409815201470935E1  -1.501441658133260E2  -3.659273420040505E1   4.723219312983699  -3.458073773671459E1   1.037470200265927E2  
                        -5.737160308450819E1  -1.233195744702611E2  -3.676881337429811E1  -6.393607976553650  -1.284532862703338E1  -1.757405381114383E2  -4.082584193503143E1   1.531991196664477E2  
                        -3.735454191740786E1   1.034269806273793E2  -3.405164279242531E1   1.035621238084989E2  -4.047062384784804E1   1.571569000625336E2  -7.892346222355223   2.484132308652383E1  
                        
 6.082213213213213E10   -1.117191477673675E1   1.297218267261534E2  -4.103897259531772E1   4.081535097204760E1  -5.567661786292965E1  -3.148490789807608E1  -3.735690054400412E1   2.027387510017373  
                        -4.047530067528538E1   4.322488428663066E1  -1.304214459800996E1  -1.791464074075753E2  -3.628067363922491E1  -1.088623831791877E2  -3.594715164416412E1   4.959821628043893E1  
                        -5.584695330522312E1  -1.621118008237144E1  -3.676115975798892E1  -1.131562371262831E2  -2.318938668287383E1   1.565837284459904E2  -4.008344141844625E1   4.282396063737839E1  
                        -3.789812279306644E1   2.739509381689102  -3.587984454342459E1   4.679924020187824E1  -4.053767044097940E1   5.212381966696715E1  -1.501316760858674E1   1.767596880704824E2  
                        
 6.089219219219218E10   -2.275942844456927E1   7.123137327505118E1  -4.059755559832382E1  -7.335506187426726E1  -4.782084363397065E1  -1.624529254451752E2  -3.711391752516103E1  -1.087043149354091E2  
                        -3.934270622868346E1  -6.445290987662354E1  -1.281853614001157E1   1.467010930594562E2  -3.659251071332461E1   1.391531889907201E2  -3.747786232995433E1  -4.275165640278894  
                        -4.813231725668017E1   1.712106996852818E2  -3.637274731841898E1   1.327240771246514E2  -1.607456922177311E1  -1.150362201181595E2  -3.971399663530495E1  -6.550170295497367E1  
                        -3.791933722543401E1  -1.088880948488845E2  -3.856082972416802E1   2.636855070812800  -4.108063704539414E1  -6.051825465730508E1  -6.369763311760015  -1.069491466967221E2  
                        
 6.096225225225225E10   -1.379509329317379E1  -1.644458043059471E2  -4.080376393081488E1   1.743667413578493E2  -4.427537597866076E1   4.680972568625549E1  -3.676681794736248E1   1.338293099586898E2  
                        -3.983139027126228E1   1.796560469203249E2  -1.273430330552227E1   1.103147783347822E2  -3.693817550989463E1   2.906119949927064E1  -4.099053318369190E1  -3.332057199355946E1  
                        -4.430012406717054E1   5.348832285661169E1  -3.684185851797922E1   2.238165569417069E1  -1.274144191739761E1  -1.734040579986593E2  -3.991932527527660E1  -1.792590605658531E2  
                        -3.780212498354659E1   1.359382967097312E2  -4.028805585728499E1  -3.522920240358720E1  -4.044354777225930E1  -1.708716852827284E2  -1.247082611671828E1  -4.817532577498936E1  
                        
 6.103231231231231E10   -1.164058834792705E1   1.407327891844672E2  -4.201108734706351E1   6.317665150975958E1  -4.266375852574335E1  -6.937095466111191E1  -3.681099268319947E1   2.351586400623995E1  
                        -4.071036563315786E1   7.170396370884259E1  -1.246825674126900E1   7.458364269365468E1  -3.645364181710546E1  -8.099691974593884E1  -3.873461288698829E1  -5.420206243366412E1  
                        -4.277905419055904E1  -6.930992400670286E1  -3.715960560882480E1  -8.871249447153210E1  -1.674025846541228E1   1.342223989762699E2  -3.968735008002471E1   7.500522363911489E1  
                        -3.769997934257293E1   3.001437221218358E1  -3.922210100724054E1  -6.386058596212856E1  -4.046076656517627E1   7.636856351401181E1  -8.392438566624449   1.165643708631455E2  
                        
 6.110237237237237E10   -1.802455646533119E1   7.386143704300584E1  -4.145307709625874E1  -4.390432023157808E1  -4.118615198866640E1   1.605095838151215E2  -3.773787676082365E1  -7.894449093469108E1  
                        -4.146622960455743E1  -3.841598887799970E1  -1.177979997935393E1   4.053431598367776E1  -3.700911436878826E1   1.673262761346047E2  -3.700861419986180E1  -9.703715229187527E1  
                        -4.192421859533839E1   1.606620844315153E2  -3.715194336657429E1   1.652900813608853E2  -2.442772545915977E1  -1.052166302077971E2  -4.080674450266872E1  -3.414398428804405E1  
                        -3.697353153002858E1  -7.757657756924938E1  -3.654621503625201E1  -1.060018532473721E2  -4.036442521800437E1  -3.504064075729063E1  -5.419876123915015   1.624495171968841E2  
                        
 6.117243243243243E10   -1.756017885942527E1  -1.355360828123372E2  -4.115986686031540E1  -1.562556750158826E2  -4.113511882808427E1   4.148581695705566E1  -3.714415116370208E1   1.524235105944930E2  
                        -4.122525279785499E1  -1.516931144501355E2  -1.229398965104921E1   5.001772685720149  -3.727788033114290E1   6.190911065327235E1  -3.561107340681645E1  -1.605876129623093E2  
                        -4.120231169878908E1   3.692430142809049E1  -3.735370017788707E1   5.195071652959612E1  -1.314395633333803E1  -1.666747746015126E2  -4.185263865991543E1  -1.558148462608178E2  
                        -3.789469272718382E1   1.649840663593265E2  -3.564449064598693E1  -1.642834539098114E2  -4.117336298138234E1  -1.486554834848392E2  -1.942586228371384E1  -1.077485773542447E2  
                        
 6.124249249249249E10   -1.253292626026173E1   1.549571574330598E2  -4.199961958105380E1   9.739859055819704E1  -4.003508778062816E1  -7.379494966385721E1  -3.897909214927619E1   4.744273863244793E1  
                        -4.191891392812249E1   1.017339399034054E2  -1.342477608615328E1  -3.037137140180041E1  -3.745988777716003E1  -5.170724910594290E1  -3.665562664982113E1   1.354322009313273E2  
                        -4.096968837497026E1  -7.318962951343008E1  -3.761278676992494E1  -5.215068787558574E1  -1.309353092397323E1   1.248594337984134E2  -4.199786803446101E1   9.006906650022729E1  
                        -3.763800246890703E1   5.441399666250258E1  -3.548799226205872E1   1.452713202580480E2  -4.131624226793382E1   9.752931570616873E1  -5.748058920686273   2.953907596107260E1  
                        
 6.131255255255254E10   -1.855695898007739E1   7.001804114982092E1  -4.228871177801735E1  -1.300553380253822E1  -3.887996296434446E1   1.689169551300559E2  -3.693657890023871E1  -6.375385672275552E1  
                        -4.249880549290106E1  -4.917519202448986  -1.435737189662704E1  -6.642931386394233E1  -3.823647452186795E1  -1.596359800720236E2  -3.488358376766917E1   8.402889152334521E1  
                        -3.881244644883995E1   1.653173876779480E2  -3.775724543077502E1  -1.610466177935039E2  -3.043390432667648E1  -2.456760208843669  -4.171076833932484E1  -1.824666462769766E1  
                        -3.850551624220424E1  -5.622132321079960E1  -3.555529974082698E1   8.162634493187001E1  -4.218247287885495E1  -1.102483625575662E1  -5.255028121711486   7.600283700965356E1  
                        
 6.138261261261261E10   -1.697485175907774E1  -1.026200783447823E2  -4.260498973106436E1  -1.176593889417632E2  -3.855583345851760E1   4.674307071799078E1  -3.942352402305942E1  -1.677274154736984E2  
                        -4.341682743618446E1  -1.167383491968903E2  -1.487129324947268E1  -1.212449787452531E2  -3.867349878499016E1   9.150328613432546E1  -3.891391011623993E1   2.382428156164547E1  
                        -3.746104353174000E1   4.327331194245540E1  -3.821421908613299E1   8.635585957462797E1  -1.431368285956582E1  -1.688334706069729E2  -4.270549448291150E1  -1.226209163602525E2  
                        -3.876765518702477E1  -1.607776750438309E2  -3.810212340615707E1   2.898910859195464E1  -4.318380182423458E1  -1.155986634608010E2  -1.533235487842668E1  -1.282262381439389E2  
                        
 6.145267267267267E10   -1.303422456951819E1   1.781188213702204E2  -4.194028568024219E1   1.317241894558898E2  -3.620482019811735E1  -7.620511041149624E1  -4.010549940122365E1   8.681876635790675E1  
                        -4.286252675252241E1   1.356754524366554E2  -1.310764083788761E1  -1.665641820149217E2  -3.789254186573632E1  -1.844700874215168E1  -4.115092585923976E1  -7.019283985684989  
                        -3.631293613859721E1  -7.462578567094570E1  -3.832490831643810E1  -1.797779255947533E1  -1.204992436575846E1   1.225660704132285E2  -4.459764509086204E1   1.452434700413590E2  
                        -3.962696326253094E1   8.823352737655615E1  -4.202027976545293E1  -1.844596368926907E1  -4.473521687709584E1   1.396088927375662E2  -4.627595925934411  -4.545156480546968E1  
                        
 6.152273273273273E10   -1.953783791769799E1   9.228399760940518E1  -4.296818365604968E1   2.317096905693569E1  -3.497365148046656E1   1.608835011764762E2  -3.989937792160147E1  -2.178553369105273E1  
                        -4.185396488455339E1   2.873876160857158E1  -1.134448998866966E1   1.554413539693007E2  -3.799917388247089E1  -1.238637551193721E2  -4.453002831417272E1  -4.490702533282868E1  
                        -3.491391892937931E1   1.592308398443869E2  -3.772383943122879E1  -1.268339277898520E2  -1.873648642515471E1   5.589938303235019E1  -4.304188032768612E1   2.592587307049879E1  
                        -3.988266335285675E1  -1.629796833927079E1  -4.411160300905443E1  -5.496087747437163E1  -4.373902823648472E1   3.565702577127867E1  -8.973128740609326  -6.321196905574942  
                        
 6.159279279279279E10   -1.630690370668475E1  -7.498715133974672E1  -4.283336975131201E1  -9.554479861359742E1  -3.485329535495956E1   3.326933487332888E1  -3.976545864901185E1  -1.260693183927937E2  
                        -4.170204211005895E1  -7.895126654936182E1  -1.056094363141606E1   1.189084375937354E2  -3.732771979084381E1   1.264994425571435E2  -4.340094665013882E1  -5.408518378729951E1  
                        -3.491222113915459E1   3.150400029793635E1  -3.772212812863446E1   1.182810968181538E2  -1.963492349085675E1  -1.634328276369093E2  -4.361766285335001E1  -7.670115505059469E1  
                        -3.945961973244449E1  -1.249231346305843E2  -4.164389501723409E1  -6.268042877741215E1  -4.376224394381622E1  -6.998831507781098E1  -9.007862994787715   1.654054781664713E2  
                        
 6.166285285285284E10   -1.269528718141858E1  -1.537056226556691E2  -4.263224125805929E1   1.594018481537808E2  -3.474223750568653E1  -9.168595712760265E1  -4.003739233073198E1   1.183335076865769E2  
                        -4.245667930256631E1   1.646602602694354E2  -1.083322030146921E1   8.422619759225820E1  -3.828364355606489E1   1.493775551522061E1  -4.052063779455749E1  -1.163774393131168E2  
                        -3.516380291523161E1  -9.168196996144057E1  -3.825706020798654E1   1.128907755792037E1  -1.283715731930475E1   1.243885518408923E2  -4.337420921337765E1   1.728334064167993E2  
                        -3.817272388831667E1   1.248527739011137E2  -3.961728746264620E1  -1.061824403973101E2  -4.288176286776353E1   1.731679672167391E2  -3.461608592203819  -1.511969173386475E2  
                        
 6.173291291291291E10   -2.023326551189309E1   1.148337928566798E2  -4.261594829994037E1   5.355829966381831E1  -3.509467035475223E1   1.476214048594239E2  -3.917454775559153E1   1.516224492410642E1  
                        -4.287337328644765E1   5.762421526981793E1  -1.153994603315592E1   4.896968231014335E1  -3.845019220514027E1  -9.578234120444839E1  -4.115412650467069E1  -1.529491767625344E2  
                        -3.473903341936304E1   1.490591552249885E2  -3.893142018682762E1  -9.758663560551899E1  -1.422971849428164E1   5.202732277351428E1  -4.271125601797519E1   6.233407363667040E1  
                        -3.914927653005356E1   1.550724941817017E1  -3.960909850428426E1  -1.588190947094107E2  -4.298019237850393E1   6.141417613206820E1  -1.627803201290674E1  -5.716465817457705E1  
                        
 6.180297297297297E10   -1.517901160841566E1  -5.639583744088940E1  -4.464635947034787E1  -5.403297444613681E1  -3.470086750974821E1   3.107567517891050E1  -3.886993643727252E1  -1.006039311108709E2  
                        -4.384666149449278E1  -5.147103971158311E1  -1.259497915537144E1   9.959699730833432  -3.861624827387190E1   1.606213240829891E2  -3.753211143030403E1   1.445867593285124E2  
                        -3.486307539632463E1   3.005636250883448E1  -3.911338106601328E1   1.514669414211969E2  -2.386006126411517E1  -9.144994041010237E1  -4.275389114307084E1  -5.304285785021537E1  
                        -3.950527359484180E1  -9.928364660567519E1  -3.837767047951076E1   1.519738803405332E2  -4.344626178422281E1  -5.699370153728169E1  -3.096726060446143   7.810305036244961E1  
                        
 6.187303303303303E10   -1.235020740990558E1  -1.314427328006562E2  -4.390367474297234E1  -1.669826185239100E2  -3.434179074971599E1  -8.905158088721029E1  -3.998856509029711E1   1.518183441236796E2  
                        -4.419088734209873E1  -1.538284691671730E2  -1.172789872831482E1  -3.308925761266666E1  -3.935910377484202E1   4.790864356859753E1  -3.862694499736622E1   1.097347001193263E2  
                        -3.515967128836666E1  -8.855226555543602E1  -3.914489087772262E1   4.442307786135815E1  -1.453983482910765E1   1.321279603365370E2  -4.543685263265361E1  -1.557579353057267E2  
                        -3.979455245918824E1   1.486082799509682E2  -3.882444150224199E1   9.720406133807791E1  -4.413486927389733E1  -1.595936809403094E2  -4.683967402178955   1.265060449055949E2  
                        
 6.194309309309309E10   -1.909422130955537E1   1.508283372120549E2  -4.327520827485625E1   9.453219073662487E1  -3.426765025538433E1   1.524820651055058E2  -4.056731803768268E1   4.482465920758484E1  
                        -4.544091953711332E1   9.357157420068322E1  -1.070655640602228E1  -7.016635577255136E1  -4.031279852141922E1  -5.389852499504947E1  -3.942445384958219E1   5.552484720699994E1  
                        -3.393748088296954E1   1.507928198042145E2  -3.904203402252492E1  -6.075961599022286E1  -1.429269796664739E1   5.534528070769227E1  -4.544285082087578E1   9.042387785241937E1  
                        -4.015670032362008E1   4.558632777488391E1  -3.972649437017144E1   5.701497302906287E1  -4.516923977509649E1   9.023266015582099E1  -1.474869174589725E1  -7.391333651349544E1  
                        
 6.201315315315315E10   -1.651340849664632E1  -5.476929981109216E1  -4.337152271319788E1  -1.953574769151404E1  -3.305126576915050E1   2.626381055485322E1  -4.226170250378458E1  -5.805744141025997E1  
                        -4.390747860281070E1  -1.374136825401143E1  -1.052986390426957E1  -1.075341021981344E2  -3.936334435262250E1  -1.611294540820101E2  -4.218227604449798E1   1.943498721844607E1  
                        -3.350066485175096E1   2.547899125733035E1  -3.931873389561849E1  -1.649951800821467E2  -1.800800889741063E1  -5.464642189688833E1  -4.670753057546843E1  -8.203125950849961  
                        -4.128343332748786E1  -5.993433530982255E1  -4.091740971121403E1   3.181504394455021  -4.530572390264462E1  -1.325934635286936E1  -3.857001735993192  -1.054919011030369E1  
                        
 6.208321321321321E10   -1.170218977541548E1  -1.204003376805872E2  -4.470263545069849E1  -1.188668145795046E2  -3.325657926055451E1  -1.005420456517213E2  -4.059186310766778E1  -1.721673579621896E2  
                        -4.443815691031015E1  -1.166893523199003E2  -1.079554802718214E1  -1.456717129160309E2  -3.964983160496337E1   9.286266321600246E1  -4.175642924695210E1  -3.385155304107258E1  
                        -3.380913998244749E1  -9.925381612517573E1  -3.888917510198697E1   8.658376920347412E1  -1.768001151745114E1   1.569413872614194E2  -4.626626985698702E1  -1.308369168419073E2  
                        -4.178964685677619E1  -1.700044996873679E2  -4.253142114116923E1  -3.453131265940377E1  -4.737840263200538E1  -1.214890673523418E2  -6.551096062375099   3.525213123616081E1  
                        
 6.215327327327327E10   -1.634208892505198E1   1.633773245081110E2  -4.294465671243263E1   1.288560928592280E2  -3.375991739014350E1   1.368478421617800E2  -4.198423006520159E1   8.371873423113452E1  
                        -4.325887900845868E1   1.330360161155761E2  -1.176142480259270E1   1.689560770978214E2  -3.909285318853396E1  -1.755022880955441E1  -4.281710819407974E1  -6.508237428875735E1  
                        -3.427659569343440E1   1.400170723953770E2  -3.876343866616419E1  -2.583871634438033E1  -1.566608210330159E1   5.779704703940062E1  -4.709002829315556E1   1.400513530584476E2  
                        -4.133109430295743E1   9.215696737282558E1  -4.184188282158959E1  -6.918409013124868E1  -4.593024020928658E1   1.483067243674858E2  -8.129536731323119  -1.563138675838811E2  
                        
 6.222333333333333E10   -1.881307021632113E1  -2.407455129268292E1  -4.286536637382200E1   1.933674518235388E1  -3.468631197213787E1   1.504767792549539E1  -3.883575586594150E1  -1.728485468365827E1  
                        -4.206574347086522E1   2.453018925518146E1  -1.228334223622472E1   1.220295191677014E2  -3.827389119713418E1  -1.237230712138935E2  -3.916691987791121E1  -9.776145490015099E1  
                        -3.434276037251330E1   1.378876433788230E1  -3.696991931961696E1  -1.287636211565675E2  -1.595939109247807E1  -4.629087500996585E1  -4.345611858155567E1   4.282168980703802E1  
                        -4.031301300618258E1  -1.186728746876866E1  -4.125821086187477E1  -9.559941900800888E1  -4.658840348310530E1   3.824088881314822E1  -2.121949650315194  -9.318110135012823E1  
                        
 6.229339339339339E10   -1.177463571514539E1  -1.038301293885062E2  -4.312060895006340E1  -9.586393579997886E1  -3.471832483775760E1  -1.078704390672040E2  -4.038511334705537E1  -1.223878557879905E2  
                        -4.241777115702074E1  -8.984078831541234E1  -1.222818738726226E1   7.790577201963261E1  -3.748189783886009E1   1.207354596407793E2  -3.902594918072360E1  -1.406271693490446E2  
                        -3.541390329638280E1  -1.094332754617805E2  -3.834542618747665E1   1.172223102974289E2  -1.743834572128460E1  -1.620822691938976E2  -4.380506193621872E1  -8.031003010763196E1  
                        -3.998590017860562E1  -1.209881381099350E2  -3.926058315568755E1  -1.408512849314491E2  -4.394650523384402E1  -6.859577521005214E1  -1.167138309128594E1  -2.096729032933478E1  
                        
 6.236345345345345E10   -1.469655009606816E1  -1.755911354374725E2  -4.352798964790193E1   1.549762975797619E2  -3.639210398922062E1   1.388626005821344E2  -3.959456834532647E1   1.257096940742258E2  
                        -4.285565003955698E1   1.591993352847736E2  -1.152964628034238E1   4.127031749201186E1  -3.811380325512199E1   1.198610874364736E1  -3.607028388007117E1  -1.798254124544249E2  
                        -3.580901019526966E1   1.409993199676816E2  -3.811160744419621E1   9.629150075802826  -1.816191587027881E1   7.784471240867963E1  -4.276467924864065E1   1.778027421866765E2  
                        -3.794357873779467E1   1.290575310814394E2  -3.672933951637859E1   1.721386118518090E2  -4.368829481211711E1   1.696098173484473E2  -4.740889007792998   1.300206046421632E2  
                        
 6.243351351351351E10   -2.364453927397787E1   4.590382963873894E1  -4.357138279337907E1   3.929586881555343E1  -3.562811688843240E1   2.106422866356330E1  -3.883705122730213E1   6.975370537311141  
                        -4.489388587234197E1   4.904616363345974E1  -1.065120434446014E1   6.328193493027213  -3.858798024959960E1  -9.902061378323583E1  -3.716246624617701E1   1.164011212478890E2  
                        -3.587107664297647E1   2.295990014109005E1  -3.875156244191793E1  -1.014463854842082E2  -1.583725163861300E1  -5.087617052013196E1  -4.593890524126282E1   5.018331180260373E1  
                        -3.812707382380862E1   1.104034891863167E1  -3.591062357529894E1   1.141989841314580E2  -4.367027250908181E1   5.837503175271383E1  -4.719082820573500   1.683684275308574E2  
                        
 6.250357357357357E10   -1.514341683339726E1  -9.322273019209231E1  -4.439263138513003E1  -5.802782617051545E1  -3.615299524731836E1  -9.826289261108667E1  -3.981689520235585E1  -1.023528206084962E2  
                        -4.362984792174856E1  -6.136018918836663E1  -1.033324295311004E1  -2.647510835017566E1  -3.896636594214405E1   1.512600104166983E2  -3.659687911924141E1   6.466644242671622E1  
                        -3.522892045318908E1  -1.009699804906046E2  -3.826202811167069E1   1.478987109384535E2  -1.546018701024565E1  -1.277652125546317E2  -4.436754473079714E1  -6.223773961195865E1  
                        -3.985029664926473E1  -9.936584487247242E1  -3.694339639385415E1   6.427453627974744E1  -4.494743485020435E1  -4.862227887095359E1  -1.316803963864642E1  -5.359966345572199E1  
                        
 6.257363363363363E10   -1.461340075458956E1  -1.710521317281462E2  -4.398537136577319E1  -1.717020613505775E2  -3.597215861720989E1   1.372583193926024E2  -3.917915185890868E1   1.359040438365974E2  
                        -4.475094039627884E1  -1.644390115823526E2  -1.042641367923465E1  -6.097860306371880E1  -3.878852295916779E1   4.905283271693219E1  -3.894697630032152E1  -5.137621924562665  
                        -3.589223083129308E1   1.385441830214632E2  -3.844531084872615E1   4.315893632642115E1  -1.952199195292201E1   1.135612922876740E2  -4.317995331729443E1  -1.668004765188272E2  
                        -3.981827306966164E1   1.463483358737852E2  -3.826957378825009E1   9.335357614869437  -4.459599443195070E1  -1.633415324353799E2  -1.407717257452327   2.327093441447856E1  
                        
 6.264369369369369E10   -1.873385218491066E1   1.092611822066456E2  -4.369423843531031E1   9.119128707693839E1  -3.614708357046310E1   1.728553190491332E1  -4.024173122578094E1   4.434374598625136E1  
                        -4.491567757968820E1   8.649338617723380E1  -1.131810768742126E1  -1.014543074857966E2  -3.963055174514206E1  -5.767290958561034E1  -3.974782632754197E1  -2.425369145418217E1  
                        -3.690749199470582E1   1.419549583456497E1  -3.901873876770303E1  -6.440851313380782E1  -2.048216944553832E1  -2.274704270755250E1  -4.516640969793049E1   9.296281811814441E1  
                        -4.023982240008731E1   3.859429399174236E1  -4.025379944784888E1  -3.325478208303546E1  -4.489074812514475E1   9.591957433709725E1  -5.990847748848770   8.958467906894519E1  
                        
 6.271375375375375E10   -2.281043809887989E1  -6.020664294866467E1  -4.260266492994109E1  -2.119837547003501E1  -3.798455920399994E1  -1.059035046734835E2  -3.984601580477169E1  -7.097543761671746E1  
                        -4.326911364517738E1  -1.451244038620829E1  -1.133893637970055E1  -1.415709822503671E2  -3.888311979809660E1  -1.642193809246247E2  -4.022626317017753E1  -6.463552699131446E1  
                        -3.774030299217321E1  -1.084411416718034E2  -3.884026926860129E1  -1.733792230066504E2  -1.416437051962140E1  -1.221022282630819E2  -4.570344790464051E1  -2.456490098919902E1  
                        -4.010684493749258E1  -6.508181594382590E1  -4.122230585293298E1  -6.188200402191538E1  -4.632160515738073E1  -1.000847797854921E1  -7.984787093142913  -1.073332066907083E2  
                        
 6.278381381381381E10   -1.606937047892916E1   1.784681253488567E2  -4.217026990755847E1  -1.268517795446767E2  -4.008912019053119E1   1.372813566424726E2  -4.031580092655609E1  -1.674081239946463E2  
                        -4.304332390960556E1  -1.251460848827963E2  -1.170704571887292E1  -1.770291231388453E2  -3.769668095596571E1   9.009833357947916E1  -3.911400493664878E1  -7.950062998398094E1  
                        -3.901504864439450E1   1.264305490143738E2  -3.811356536159104E1   7.647789955199325E1  -1.608030472344271E1   1.481121669427960E2  -4.675998956643667E1  -1.232465963022654E2  
                        -4.055573904550676E1  -1.675325273183730E2  -3.958298188745794E1  -9.754029493526080E1  -4.586597037734799E1  -1.204145841402008E2  -3.792832402297206  -5.439513737957622E1  
                        
 6.285387387387387E10   -1.488518180243404E1   1.014143616423893E2  -4.151806825350475E1   1.168409943092337E2  -4.072656344080879E1   2.370804396316015E1  -3.972817641899139E1   7.559777962013406E1  
                        -4.251454823147061E1   1.277640584312820E2  -1.272822352471245E1   1.508877757029973E2  -3.681720718326213E1  -2.541213126817496E1  -3.789394084840562E1  -1.440974757823900E2  
                        -4.135730290134912E1   1.999222189664783E1  -3.768389973543685E1  -3.326961123474931E1  -2.118442405570549E1   3.066070659360552E1  -4.636401665839055E1   1.230813247688894E2  
                        -4.070766593201198E1   8.148657394053696E1  -3.732137154133932E1  -1.359840756687512E2  -4.648645289629197E1   1.383630433141240E2  -8.560748623244868   7.945557921645269  
                        
 6.292393393393393E10   -2.182918235618837E1   1.450005624483358E1  -4.121981914839518E1   2.064399418036330  -4.150745979795572E1  -8.213893673944033E1  -3.973768499954060E1  -3.372862027900685E1  
                        -4.120659329702065E1   1.304493588482576E1  -1.510035659079255E1   1.104532052471762E2  -3.732805987740990E1  -1.384964401295031E2  -3.627223525385026E1   1.758929961345232E2  
                        -4.133789639213896E1  -8.373146144527750E1  -3.666134079431470E1  -1.438139639104172E2  -1.656510068164094E1  -1.324868773511502E2  -4.491742267515639E1   2.754779921984851E1  
                        -3.862650434658127E1  -2.232325668323506E1  -3.526892286448683E1   1.746380395980837E2  -4.584201099636973E1   2.735913550203944E1  -7.509766312928415   1.689971228005414E2  
                        
 6.299399399399399E10   -1.749368530801981E1   1.717215572124433E2  -4.218552255968761E1  -1.069363989379779E2  -4.176984251480435E1   1.651134055215044E2  -3.700500498845258E1  -1.505227973379251E2  
                        -4.180514168178460E1  -1.076322361632067E2  -1.554853921198882E1   5.796799780093294E1  -3.694845509929839E1   1.112799339854981E2  -3.371870246624333E1   1.115923040922613E2  
                        -4.086775154757606E1   1.634967148746312E2  -3.736172866380032E1   1.055569493764342E2  -1.307875732667835E1   1.582181817547972E2  -4.452103218084086E1  -8.808748388673543E1  
                        -3.887352412070065E1  -1.340210186320005E2  -3.452197815977330E1   1.177996600479484E2  -4.340898207149947E1  -7.745325004251396E1  -3.624381594180459  -1.351507805124283E2  
                        
 6.306405405405405E10   -1.236333456878168E1   1.019700040971864E2  -4.264916354939297E1   1.374032548867938E2  -4.052099128721951E1   4.731102938092850E1  -3.872601819341161E1   1.083467854511727E2  
                        -4.220572643076043E1   1.424746429031394E2  -1.355192982779148E1   6.570415260764337  -3.712888003780775E1  -1.949322712916424  -3.540421561010495E1   6.381885138409688E1  
                        -4.062166475314864E1   5.024654622598153E1  -3.688848558566723E1  -7.501942013586178  -1.740195190425652E1   7.202817659446404E1  -4.296497410802768E1   1.563927344188232E2  
                        -3.866240793834420E1   1.141072566385251E2  -3.496960097263475E1   6.618384557799425E1  -4.290400252868520E1   1.597202012173881E2  -1.190750833659630E1  -4.836539634125739E1  
                        
 6.313411411411411E10   -1.550298615898253E1   2.784429032601587E1  -4.360347756985444E1   2.662921549070588E1  -4.065671780883967E1  -6.830712149759185E1  -3.620839304325933E1   4.315066159658404  
                        -4.282191005600850E1   2.768812669868737E1  -1.085905706944064E1  -3.274534073242784E1  -3.797450166612371E1  -1.105917238682412E2  -3.344753083795044E1   1.632235291518807E1  
                        -4.012273434350264E1  -6.611734377344267E1  -3.784318223584796E1  -1.165016398115781E2  -2.320415299078118E1  -1.298052738960144E2  -4.173679810256931E1   5.239719051593256E1  
                        -3.815955234284214E1  -2.589447143823098  -3.533916719836723E1   1.063687200275370E1  -4.360552600131836E1   4.728337774332119E1  -1.783197356620272   9.638227677382623E1  
                        
 6.320417417417417E10   -1.991918334394876E1  -1.665223133704743E2  -4.307966990501789E1  -8.162204272543059E1  -4.076026181626187E1   1.742772918812960E2  -3.898675995286939E1  -1.192413564280289E2  
                        -4.337121236632148E1  -7.717474186515851E1  -9.943309025719145  -6.241032314802735E1  -3.826055345675999E1   1.428439921672229E2  -3.726716434673298E1  -3.057633537357470E1  
                        -4.109998374731911E1   1.764714702086635E2  -3.760097298026760E1   1.298592457449287E2  -1.245110851190327E1   1.527146117345772E2  -4.540572301967700E1  -6.655029446488295E1  
                        -3.869874159424279E1  -1.145335802839126E2  -3.722070047088977E1  -4.004848502887541E1  -4.327750223796419E1  -6.260350066572607E1  -6.682270509934162   1.378570160138636E2  
                        
 6.327423423423423E10   -1.204276192605818E1   1.135761488538934E2  -4.373999340614281E1   1.735789545956525E2  -4.197308869998701E1   6.597892730701507E1  -3.912836368578606E1   1.287691112987513E2  
                        -4.378060476055910E1  -1.785002584540733E2  -9.764956687781535  -8.799843082832246E1  -3.858203554469306E1   2.934035989813496E1  -3.800231534174887E1  -6.585088914188374E1  
                        -4.154901093160647E1   6.547669969159732E1  -3.791630258760867E1   2.702699191019607E1  -1.387538634917239E1   8.849608300931448E1  -4.440843662853258E1   1.773844729880376E2  
                        -3.935154086689413E1   1.356566672906508E2  -3.740957527954258E1  -7.401050695995535E1  -4.477801422884795E1  -1.761886887694162E2  -1.096545300699201E1  -6.326599961349474E1  
                        
 6.334429429429429E10   -1.302755576945565E1   5.070609969444013E1  -4.318944116351818E1   7.422946410419536E1  -4.162009211526281E1  -3.820218395251131E1  -4.066676169332006E1   1.833273618783199E1  
                        -4.339921131991823E1   7.769634424865389E1  -1.084830738481291E1  -1.137462133879368E2  -3.861825163097486E1  -7.176640513050899E1  -4.070857206078508E1  -1.193466568395167E2  
                        -4.167183035772419E1  -3.904924871069652E1  -3.774495486616622E1  -8.251773847301925E1  -3.088076940968626E1   8.971207981973450  -4.667573707366083E1   5.862054667956863E1  
                        -3.974367729916561E1   2.434271048619610E1  -3.702794540248883E1  -1.111642686266666E2  -4.524714942362086E1   7.043810922407741E1  -3.399860836013876  -2.588090762182576E1  
                        
 6.341435435435435E10   -2.973670174589503E1  -3.830806238547231E1  -4.274481874277067E1  -4.889497915746274E1  -3.961935397890517E1  -1.575475730565165E2  -3.923133860344341E1  -8.598592178015994E1  
                        -4.260110381956715E1  -4.188112661497252E1  -1.256075827286587E1  -1.434281053426690E2  -3.827912150258710E1   1.746101211256933E2  -3.514053946067512E1  -1.597848133592719E2  
                        -3.998183457888720E1  -1.525696685173972E2  -3.798001647819883E1   1.685589205054114E2  -1.407483762925205E1   1.519540942349699E2  -4.665725099982593E1  -4.105830007489274E1  
                        -4.036285295267996E1  -8.423945446500738E1  -3.679308877034431E1  -1.550659485479147E2  -4.579723356358680E1  -3.325089362708083E1  -7.090382713898313   4.839789971412719E1  
                        
 6.348441441441441E10   -1.408326527469107E1   1.206157695755624E2  -4.255087297355290E1  -1.558946274926547E2  -3.884456804705035E1   8.874193125140853E1  -4.024608518063050E1   1.643946736101577E2  
                        -4.234390016332927E1  -1.444867557202057E2  -1.404332804024701E1   1.786888304621645E2  -3.862971909108547E1   6.998365403497489E1  -3.475977240100459E1   1.571489962921758E2  
                        -3.873033537542763E1   8.891072131849246E1  -3.833970155543535E1   6.385607413956082E1  -1.248167204781166E1   9.433176916140658E1  -4.615360173493166E1  -1.418471533144284E2  
                        -4.032362147780604E1   1.653659657446090E2  -3.502316600975176E1   1.564904916867267E2  -4.679198447083306E1  -1.401751368936330E2  -5.353275424941320  -1.230608619548937E2  
                        
 6.355447447447447E10   -1.280499401587176E1   5.962935677708702E1  -4.216653995629543E1   8.865806329106150E1  -3.757572713769137E1  -3.590390090786595E1  -3.960491242346806E1   7.425096153407036E1  
                        -4.173170897809064E1   1.010521489277385E2  -1.528036504288763E1   1.262262529976044E2  -3.698720513751015E1  -4.240780074165910E1  -3.383314629416469E1   1.195893254452030E2  
                        -3.702989490388271E1  -3.309383664528179E1  -3.783093023143901E1  -4.670673017594641E1  -1.715127034069721E1   3.182934592453480E1  -4.623107795457570E1   1.182419611524591E2  
                        -4.040951806495220E1   6.852368756679392E1  -3.473665979447723E1   1.102048035774405E2  -4.593243018186438E1   1.114916756846120E2  -3.766991506775186  -8.346863279976544E1  
                        
 6.362453453453453E10   -2.382567279602027E1  -2.353624589253937E1  -4.227093732425910E1  -2.356117612189686E1  -3.668453184420680E1  -1.643615054876489E2  -4.000094394974579E1  -3.502834249869386E1  
                        -4.214182428162312E1  -2.154432193588445E1  -1.426856934407894E1   7.176576663285562E1  -3.770649981765423E1  -1.548735188610589E2  -3.595939649039439E1   6.068000236359559E1  
                        -3.671340990595180E1  -1.622210881268345E2  -3.723315554735738E1  -1.615020990091461E2  -1.936341079278147E1   1.397117140830616E2  -4.356601024136552E1   8.316941013668158  
                        -3.963470904732208E1  -3.985341409564494E1  -3.444879153217524E1   5.842970060059155E1  -4.527590848081675E1   7.028159796776301  -1.063601353531049E1  -3.996050042880727E1  
                        
 6.369459459459459E10   -1.527515138766852E1   1.338268441549245E2  -4.219091445471280E1  -1.439088199248339E2  -3.777688801142216E1   7.192545505659288E1  -3.999481322684041E1  -1.346349319486100E2  
                        -4.215287402147258E1  -1.340785168713062E2  -1.355756034550512E1   3.278655023261693E1  -3.729042070402942E1   9.036641427433841E1  -3.483678635988730E1   2.201976709897581E1  
                        -3.773712120082112E1   7.415293541474432E1  -3.779429843380778E1   8.780272956922057E1  -1.240457137145367E1   9.342232744765525E1  -4.653889406212593E1  -9.215889402687276E1  
                        -3.876012564286569E1  -1.513190741758473E2  -3.445068583627950E1   4.457204518218228  -4.495681958392800E1  -9.789778411227981E1  -4.910996238886950   1.595105839076682E2  
                        
 6.376465465465465E10   -1.305811375123490E1   6.837396760415007E1  -4.277365431796118E1   1.012298906501283E2  -3.807264898954442E1  -4.488514880183738E1  -3.911205372007361E1   8.069693492080764E1  
                        -4.278459804602106E1   1.108953342988654E2  -1.327783974436681E1  -1.259971576849131E1  -3.828764188166704E1  -1.721989878031727E1  -3.532423724618327E1  -5.793592648109741E1  
                        -3.831292716809637E1  -4.239484351211554E1  -3.775421482615178E1  -2.632271302965820E1  -1.436865724358762E1   2.538147162977044E1  -4.350155030660480E1   1.299298766927411E2  
                        -3.816979865677764E1   9.385595993511053E1  -3.545184881146160E1  -5.070210715054022E1  -4.336890414854022E1   1.411902327105498E2  -4.520126569411882  -1.731410064481875E2  
                        
 6.383471471471471E10   -1.959748080501322E1  -2.462458534384976E1  -4.374759559610514E1  -1.250809824215781E1  -3.806294234258051E1  -1.632597998829695E2  -3.843500590679813E1  -2.188237655241395E1  
                        -4.425946401503631E1  -1.113055519233002E1  -1.229398977092130E1  -5.254481439289413E1  -3.822989573768217E1  -1.311669407734246E2  -3.649568593500012E1  -9.025278982490971E1  
                        -3.803803113243374E1  -1.617624239718333E2  -3.775988837321784E1  -1.347032140269883E2  -5.102903185656222E1   2.202310399965120E1  -4.371987205096124E1   1.880295658465126E1  
                        -3.840082073683839E1  -1.714108405926174E1  -3.697830960155404E1  -9.425183144879809E1  -4.416836045621609E1   2.252456471720844E1  -1.288769233809651E1  -2.379466017678919E1  
                        
 6.390477477477477E10   -1.680272310409247E1   1.679654162814987E2  -4.468460083851200E1  -1.180093042510604E2  -3.747422416644018E1   7.951715342725169E1  -3.785603842260187E1  -1.766604209285883E2  
                        -4.691885994537762E1  -1.038033205146761E2  -1.078252249611517E1  -8.659782421341427E1  -3.922877255724144E1   1.200058565560798E2  -3.815958375318056E1  -1.687303892322618E2  
                        -3.769358193868126E1   8.398588652731269E1  -3.875725089139448E1   1.163413852542602E2  -1.437848178710179E1   8.882103905649024E1  -4.248977355092226E1  -1.349691949787648E2  
                        -3.915705997386783E1  -1.289014078309166E2  -3.747065312250057E1  -1.299486757007814E2  -4.470814716044583E1  -8.654771052730453E1   9.654164428766660E-1  -2.862972790450098  
                        
 6.397483483483483E10   -1.241252538472699E1   8.523780439497192E1  -4.528497387774093E1   1.448551483866255E2  -3.730415822202586E1  -3.435524747023226E1  -3.970490197418079E1   1.126092509068879E2  
                        -4.484898652415070E1   1.381953055612200E2  -9.559020276856845  -1.194120295929393E2  -3.923907572811650E1   1.294806594448102E1  -3.690008481257327E1  -1.633130966264361E2  
                        -3.749812208067630E1  -3.650754176889491E1  -3.921787665048869E1   1.102310826583297E1  -1.261823071812344E1   2.336420019408283E1  -4.849699311331195E1   1.596371756669328E2  
                        -3.961414003826143E1   1.216844163891581E2  -3.867913968442735E1  -1.659214472632469E2  -4.557487932265015E1   1.542322969818115E2  -9.343889447952181   9.250577615348367E1  
                        
 6.404489489489489E10   -1.662484721212933E1   1.374719870708984  -4.518789380226671E1   3.228023958609125E1  -3.701805539766400E1  -1.665103815454393E2  -4.105269427376866E1   8.484503137073942  
                        -4.520071882321208E1   3.031760741936603E1  -8.916596374041930  -1.484916808000354E2  -3.897521474887505E1  -8.574673201765823E1  -3.612592405599583E1   1.590699797012748E2  
                        -3.617428241817172E1  -1.605539196880967E2  -3.891173365029445E1  -9.237273688547985E1  -1.818879792209670E1  -3.617852917851367E1  -4.843251204989624E1   5.262981040704028E1  
                        -4.016002618650553E1   1.118162926169124E1  -3.633475821769876E1   1.540334109300027E2  -4.764864285075859E1   5.181780264441084E1  -4.320482124478399  -6.206024809038744E1  
                        
 6.411495495495495E10   -1.902084382314173E1  -1.558112472612811E2  -4.471141407264521E1  -8.857973997184519E1  -3.699795701445871E1   7.218590118655511E1  -4.251130723591891E1  -8.622407823488713E1  
                        -4.510546881764194E1  -7.170229819580337E1  -9.235690781639919  -1.783004491684389E2  -3.872622090872809E1   1.662314111469027E2  -3.728634629303906E1   1.235162216073323E2  
                        -3.664507415025621E1   7.352133989706891E1  -3.889466215172837E1   1.587042300843047E2  -1.890917645700025E1   8.961725203303986E1  -4.949966588233107E1  -7.170023799861652E1  
                        -4.063203135255039E1  -9.221652053688439E1  -3.592948928774379E1   1.078942484500452E2  -4.854335759274080E1  -6.458148358990505E1  -4.412016394553024  -5.601264770159325E1  
                        
 6.418501501501501E10   -1.384978083267143E1   1.047335808909794E2  -4.506437332775919E1   1.725405906996232E2  -3.823364098678690E1  -5.350400406236945E1  -4.289018358611221E1   1.531452826295896E2  
                        -4.418759925055903E1  -1.768537841652744E2  -1.158218348824845E1   1.476316091700269E2  -3.807714079042970E1   5.475166324870950E1  -3.714864227443766E1   5.792514367309209E1  
                        -3.791085624518296E1  -5.463645868734356E1  -3.836713557123975E1   4.804580648864123E1  -1.260141646888732E1   2.628102082549295E1  -4.950491343695474E1  -1.665911728165598E2  
                        -4.067338799886839E1   1.639176243475628E2  -3.505207799677629E1   6.064076483833074E1  -4.900875471901475E1  -1.608439281867775E2  -1.783138119797846E1  -6.889043071882334E1  
                        
 6.425507507507507E10   -1.583952412006354E1   2.146536650238457E1  -4.542230933817231E1   5.401282531447302E1  -3.870888077744453E1  -1.794241210873267E2  -4.128006625520627E1   4.973836951865997E1  
                        -4.417061380319741E1   7.115975253063614E1  -1.485981396008141E1   1.042682308782869E2  -3.765517856056827E1  -5.799908078194138E1  -3.611659350161392E1   8.605771590166635  
                        -3.867035561281877E1  -1.709074341427527E2  -3.772833094139503E1  -6.023841020938336E1  -1.461476783003669E1  -3.947243503088965E1  -5.203536202897330E1   9.558031717523782E1  
                        -3.963773891915937E1   5.899433578607484E1  -3.466801429206623E1   4.645482449826441  -4.809838362996247E1   9.137313575328500E1  -2.067105240487302  -1.778210517448393E2  
                        
 6.432513513513513E10   -2.044649149547292E1  -1.302921702602961E2  -4.447835184724612E1  -5.848370031471882E1  -4.029408499432999E1   6.819508933645709E1  -3.832995389361793E1  -6.091327580205936E1  
                        -4.429948941818833E1  -5.522063603989203E1  -1.599628405804319E1   3.293872306758362E1  -3.734757411397814E1  -1.650867003687239E2  -3.263768370130477E1  -5.303105754916230E1  
                        -4.135308562242204E1   7.487651058093604E1  -3.687715300466788E1  -1.762166899155304E2  -2.919336031019805E1   1.500186751862671E2  -4.786308356452271E1  -3.415527257380888E1  
                        -3.878963027726792E1  -4.964849837470243E1  -3.426110806621905E1  -4.349075916614930E1  -4.707071295523488E1  -1.058112683270253E1  -2.378800000631384  -1.324388653722793E2  
                        
 6.439519519519519E10   -1.352358653198592E1   1.185793192212577E2  -4.570465066441194E1  -1.681280062913888E2  -4.205881032118185E1  -4.307172282438470E1  -3.920852739265797E1  -1.664351953342191E2  
                        -4.528779336393647E1  -1.666352060968289E2  -1.300354758407809E1  -1.773947505329181E1  -3.773224175921156E1   7.686308040621044E1  -3.650404693502373E1  -9.329410280808594E1  
                        -4.195254791947593E1  -3.874340222036359E1  -3.763673357294702E1   7.291380306585792E1  -1.462461368323330E1   3.630681815372309E1  -4.787626232968154E1  -1.309483353078066E2  
                        -3.837705765391021E1  -1.595739821174044E2  -3.623395013184130E1  -8.983748346365121E1  -4.663588312549037E1  -1.203868709826243E2  -1.440924292096266E1   2.643984375220402E1  
                        
 6.446525525525525E10   -1.383341201637846E1   3.784439048516533E1  -4.608999700947017E1   7.323924733171522E1  -4.208207768655515E1  -1.551730907671658E2  -3.581061071839318E1   5.760713828016820E1  
                        -4.692341242994771E1   6.875463297450919E1  -1.077749233827283E1  -5.341251321335244E1  -3.817891223863038E1  -3.312777969479822E1  -3.437838082719491E1  -1.477760404928143E2  
                        -4.048309818519451E1  -1.538939775100332E2  -3.856044109694643E1  -3.913771656531677E1  -1.400330503416520E1  -3.537075336261974E1  -4.542933014722446E1   1.053381137214851E2  
                        -3.773256984854004E1   7.797541932906198E1  -3.887528073525670E1  -1.422680251062769E2  -4.733864133054829E1   1.085728817709472E2   1.757348712693401   6.841345728696501E1  
                        
 6.453531531531531E10   -2.137706084163893E1  -7.684282708727947E1  -4.815697553394423E1  -4.767749518469930E1  -4.125855235783082E1   7.881514340524105E1  -3.916774087704139E1  -3.083647177685155E1  
                        -4.953186518887474E1  -2.154080645520306E1  -9.486547301113475  -8.541810841981797E1  -3.868179098320050E1  -1.432827561110546E2  -3.915406887175365E1  -1.681139795070133E2  
                        -4.177929750227354E1   7.941964955750484E1  -3.807703256801715E1  -1.460356160306028E2  -2.109440841198655E1  -1.295523833719864E2  -4.744351032583691E1  -7.788955087744970E-1  
                        -3.792979683408269E1  -3.224637026859617E1  -3.764376884307004E1  -1.673572151896773E2  -4.769337635249953E1   9.645520990888212  -1.187669513945441E1   1.567735812113864E2  
                        
 6.460537537537537E10   -1.523018927034648E1   1.304147114657477E2  -5.142465310518097E1  -1.320495347263282E2  -4.251944141143621E1  -4.693868184499430E1  -3.896570892792730E1  -1.442923809775226E2  
                        -5.267024243254559E1  -1.487994963851265E2  -9.582714086638575  -1.165827364108970E2  -3.920580581566968E1   1.055865044899328E2  -3.707077327183016E1   1.622283190515266E2  
                        -4.122766028363170E1  -4.061886680912030E1  -3.965551409806076E1   1.096788744043458E2  -1.753948732395164E1   6.165241363685359E1  -4.887926748139996E1  -1.218614265481744E2  
                        -3.864228574258532E1  -1.455381750589491E2  -3.607886095560528E1   1.581171795495579E2  -5.117532684747680E1  -1.189621848499306E2  -8.105098665270750  -3.554057412195076E1  
                        
 6.467543543543543E10   -1.265624569901961E1   5.627487538684656E1  -5.004036974786996E1   1.138577788654792E2  -4.490235278547484E1  -1.597670110523469E2  -4.192537402351513E1   1.107621746736671E2  
                        -4.989730635940411E1   1.179098034630804E2  -1.021390334402872E1  -1.544043534402290E2  -3.930957657509482E1   1.164468374534428E1  -3.707234545855562E1   1.129744259180798E2  
                        -4.517254120632571E1  -1.635032965047219E2  -3.963298723205057E1   7.933740305995632E-1  -1.513649018795160E1  -2.720817844414813E1  -5.181031228295273E1   1.189484266673129E2  
                        -3.983834678792470E1   1.060936516785532E2  -3.529114864495711E1   1.128801779529686E2  -5.023772132529586E1   1.434695832653449E2  -7.734168319083351  -3.220657572146705E1  
                        
 6.474549549549549E10   -2.046885789277225E1  -2.841017654334499E1  -4.981501540140928E1   2.146948112653708E1  -4.688840155058878E1   8.327804362207928E1  -3.945923370970898E1  -4.414685642405092  
                        -5.057503993394563E1   2.211051279311944E1  -1.010702977200116E1   1.673644418816195E2  -3.819026771903899E1  -9.869300336209918E1  -3.314868396119167E1   6.253474001109624E1  
                        -4.862336519517712E1   8.100030996309064E1  -3.917972825558660E1  -1.132136943663634E2  -1.769104747932335E1  -1.231967429850631E2  -5.027307925203903E1   3.391383238667576E1  
                        -4.025926256377008E1   3.931842262272876  -3.354256980515414E1   6.208525555496688E1  -5.213227726564730E1   3.370393364632565E1  -1.157753727000166E1  -1.764448183160598E2  
                        
 6.481555555555555E10   -1.607550886302852E1   1.326072861618427E2  -5.026076763094080E1  -1.018150513706318E2  -4.872437489726371E1  -5.586911937734754  -3.664621667737094E1  -1.122937399675760E2  
                        -4.921457770652685E1  -9.264694265232933E1  -1.066415298387043E1   1.313778003513258E2  -3.814301403170880E1   1.526308788237847E2  -2.886174169552310E1   1.330728951276403E1  
                        -4.918710395989821E1  -3.043565390008059  -3.861345598473550E1   1.459636957354416E2  -1.819201455885240E1   1.047453148011080E2  -5.262919907584945E1  -6.719299304013467E1  
                        -3.997223324989806E1  -1.093450003987097E2  -3.194171305845098E1   1.943953142095947  -5.528024043037095E1  -5.545333186231723E1   1.902550456033519  -1.177798772213491E2  
                        
 6.488561561561561E10   -1.068728039511365E1   6.687117744654698E1  -4.853769989170501E1   1.551025629249526E2  -4.751976911609128E1  -9.276759784001268E1  -3.890617501237262E1   1.531768729534538E2  
                        -5.090253112904333E1   1.448411100148094E2  -1.192880925260157E1   9.621583265594015E1  -3.845959827962857E1   3.999962343296293E1  -3.179956403732382E1  -3.551724633744713E1  
                        -4.840386861594013E1  -9.806403989798197E1  -3.813749316739935E1   3.431691719974697E1  -1.759515964399392E1  -5.996812599533924  -5.711133878355550E1  -1.646893651602028E2  
                        -3.987935168921013E1   1.519881869778673E2  -3.281369299215441E1  -4.302166062785763E1  -5.652108212498643E1  -1.527961483845643E2  -8.283655950352044  -9.805719203817607E1  
                        
 6.495567567567567E10   -1.356198877164051E1   1.470230431524108E1  -4.826744924773105E1   5.566983277931408E1  -4.351485553866265E1   1.486382241425790E2  -3.897992427827663E1   4.044651511922459E1  
                        -4.727913998720134E1   5.636819778348402E1  -1.385236446139458E1   5.786485706489739E1  -3.763706650142665E1  -7.055369419209646E1  -3.364848882948092E1  -1.004762911575920E2  
                        -4.267405358015942E1   1.503197568574327E2  -3.729429657081688E1  -7.499763089909573E1  -1.780210871363600E1  -1.135356192948422E2  -5.806875557836624E1   7.177491765110756E1  
                        -3.923493274303326E1   4.393738666919474E1  -3.365059367509383E1  -9.729610347012289E1  -5.479981871586912E1   1.292290022323645E2  -9.870036421844869   8.873147308658182E1  
                        
 6.502573573573573E10   -2.560493189569262E1   8.418178173433822E1  -4.904076541702364E1  -7.728702219056999E1  -4.227764859656204E1   1.813559655954131E1  -3.867307506558433E1  -7.569945532334947E1  
                        -4.800625616659943E1  -7.513070968561294E1  -1.613820985555461E1   6.709157964635232  -3.757867875953301E1   1.739741069448233E2  -3.447539538402505E1  -1.440864866556202E2  
                        -4.321918082679647E1   2.839935088277333E1  -3.743772432930707E1   1.698845417875550E2  -1.620028665678516E1   1.296364923665692E2  -5.083820346474161E1   5.818395783366583  
                        -3.840577411580319E1  -7.652176988643481E1  -3.468650060835136E1  -1.489976618644775E2  -5.166217284156016E1  -2.113675532425036  -3.228627490584926   1.349110695678372E2  
                        
 6.509579579579579E10   -1.165438334681231E1   6.353584895646870E1  -5.121074039710936E1  -1.795552825402291E2  -4.406634429041434E1  -1.013485872491047E2  -3.840045254029638E1   1.673015323781659E2  
                        -4.943022985432572E1   1.732121070995955E2  -1.489250916902500E1  -6.142053969016578E1  -3.688726115713967E1   6.381352790975170E1  -3.665610453358408E1   1.630357075828590E2  
                        -4.315347740846102E1  -1.024699858043003E2  -3.813698101179844E1   5.510714441773656E1  -1.708389992003053E1   3.318997323264146E1  -5.283785666031073E1  -1.357253822775497E2  
                        -3.873294535423643E1   1.744959292750723E2  -3.565602269883942E1   1.716731151387423E2  -4.946145025252646E1  -1.149919173198595E2  -9.974106654821192  -1.691771616803618E2  
                        
 6.516585585585585E10   -1.115501914968600E1   1.827485831612339E1  -5.008941406859348E1   7.106873069054295E1  -4.226760473721152E1   1.406891544910752E2  -3.824973568809718E1   6.118185088326373E1  
                        -5.443009230452030E1   6.833486601204280E1  -1.177627938189386E1  -1.086627134684246E2  -3.831637526063250E1  -4.831514752238147E1  -3.537658675607924E1   1.385606317660574E2  
                        -4.535081253431186E1   1.493122762682829E2  -3.809528208256950E1  -4.792221977058389E1  -1.924015575277158E1  -8.219995701422280E1  -5.658109554287879E1   1.276988590217064E2  
                        -3.904400473087933E1   6.728662345422012E1  -3.527155858681777E1   1.398075999079448E2  -5.456055475615214E1   1.290445306228044E2  -9.988752878321984  -7.498959093143753  
                        
 6.523591591591591E10   -2.155612976278758E1  -4.679252285822963  -5.981062861958994E1  -7.544180770888808E1  -4.308640446106845E1   4.141309880350838E1  -3.823803973873571E1  -5.196756448596695E1  
                        -5.506430722014613E1  -3.549966944905519E1  -9.157965121328347  -1.382571670898202E2  -3.906148955309779E1  -1.554472946405507E2  -3.413293612325462E1   9.397206812885666E1  
                        -4.369453524293044E1   3.163672510220526E1  -3.860667721957397E1  -1.602209894513392E2  -1.628257954587383E1   1.399335586052149E2  -5.329009973878481E1  -2.990134174209588  
                        -3.903581897860389E1  -4.597194405160557E1  -3.398792344465701E1   9.541827937452054E1  -5.337252826038831E1   9.425905560739956  -8.781859787231007   3.384352958155857E1  
                        
 6.530597597597597E10   -1.220183575486873E1   6.309264767714441E1  -6.026774206098506E1  -1.113153807853011E2  -4.220542690166704E1  -8.375052745251247E1  -3.930575718928220E1  -1.692124871307313E2  
                        -5.829007883333914E1  -1.272315966839860E2  -8.264033153488747  -1.644878709317652E2  -3.901830997345081E1   9.512937829233015E1  -3.276152553934408E1   5.036868107205489E1  
                        -4.246336499078497E1  -7.605917057499713E1  -3.877367217164699E1   9.041820317405242E1  -1.444904004133642E1   5.328769849105224E1  -5.190662021259680E1  -1.183703249399015E2  
                        -3.938569996457864E1  -1.606587325134165E2  -3.256496230825230E1   4.205813158685117E1  -5.410602845863980E1  -7.893357180918500E1  -1.129123681957631E1  -1.616429838174800E2  
                        
 6.537603603603603E10   -9.259353847610141   2.081873550283225E1  -5.087646353223691E1   1.211386850295721E2  -4.027653572254472E1   1.605430729143245E2  -3.930394033846962E1   7.495898988219065E1  
                        -5.728859945056377E1   9.349680919721314E1  -9.167821692715588   1.754807449521712E2  -4.034847796351007E1  -4.113676562532096  -3.109029452012146E1  -8.474987244064042  
                        -4.074366696212596E1   1.651527039590156E2  -3.959621170254610E1  -1.535949695965175E1  -1.825636391168335E1  -2.950946859752260E1  -5.825704060439055E1   1.431417964445465E2  
                        -3.970543934906124E1   9.325283675903535E1  -3.123674076490519E1  -7.754660149403581  -5.515549996997586E1  -1.634684361984957E2  -3.348634067860937  -1.170904821864830E2  
                        
 6.544609609609609E10   -1.366639653512678E1  -1.639827036581686E1  -5.386103136486121E1   3.096663741557129E1  -3.851940771448230E1   4.152971268590056E1  -4.090272365765957E1  -1.571752120679961E1  
                        -5.317692545849959E1   5.071811674856843E1  -1.030685368565875E1   1.477128478502616E2  -3.953532484602149E1  -1.152763965967621E2  -3.258758387353357E1  -5.807321494612600E1  
                        -3.839402334277480E1   4.048847531358409E1  -3.846869316524761E1  -1.250682831375495E2  -1.992875980582831E1   1.350106163316117E2  -5.697759853458540E1   9.690922094788191E1  
                        -4.032328750131363E1  -1.099123424535714E1  -3.192488220639947E1  -6.119852636584706E1  -5.402600332661574E1   7.136181526194685E1  -1.379456702746856E1  -7.476280951170607E1  
                        
 6.551615615615615E10   -1.603217062855050E1   4.155735785300981E1  -5.136535950395429E1  -1.063335660405566E2  -3.859759979857152E1  -8.184578603316375E1  -3.955343637033866E1  -1.315703077485339E2  
                        -6.027439475625097E1  -7.478400492498031E1  -1.204893130880742E1   1.184126999101933E2  -3.861228255324433E1   1.323678813000409E2  -3.236671103247331E1  -1.131653047153449E2  
                        -3.934867927253867E1  -8.393842781916071E1  -3.821286428964710E1   1.321093524125652E2  -1.187660081103042E1   6.029104860355400E1  -5.512202648967357E1  -2.792268387539511E1  
                        -4.011273296653553E1  -1.308342695053755E2  -3.230920890449334E1  -1.158605713590254E2  -5.340426627264849E1  -5.090844192458015E1  -7.788712462456139   1.412361553947787E2  
                        
 6.558621621621621E10   -8.467765788990633   1.479714914149797E1  -5.123677683772533E1   1.770279656815668E2  -3.938405903694740E1   1.537734101841476E2  -4.080714738379263E1   1.230524861349030E2  
                        -5.384237250394163E1   1.707528816622859E2  -1.448098235886026E1   7.989941718612812E1  -3.775029395349036E1   2.825829887790618E1  -3.413333340626045E1  -1.679988801517584E2  
                        -3.949048357418928E1   1.604765493367916E2  -3.807713111834777E1   1.722241494839561E1  -1.275397129617735E1  -2.013988460829749  -5.300934558371556E1  -1.389894117752978E2  
                        -3.988974787244099E1   1.267084103448464E2  -3.344232887845439E1  -1.679781144401588E2  -5.337986868147802E1  -1.270610066895696E2  -4.710897074128551   1.680769410172549E2  
                        
 6.565627627627627E10   -9.522878069774695  -2.427377449834913E1  -5.740000494291194E1   4.739315341918626E1  -3.946426894136366E1   3.179256995523652E1  -3.928068766104467E1   1.617570633184953E1  
                        -5.200016870466587E1   6.606465872748127E1  -1.553168731278547E1   2.231128866675233E1  -3.728815227116633E1  -9.168406097999555E1  -3.440557303370019E1   1.494936537061733E2  
                        -3.930140602377976E1   3.600951670518769E1  -3.794677484794913E1  -9.201917790641556E1  -2.929340189460068E1   1.021255411679252E1  -4.850062573105442E1   1.114369717264120E2  
                        -3.946883830809048E1   2.760952729145907E1  -3.508446337910005E1   1.552698300642806E2  -4.990022780709813E1   1.050919340373908E2  -1.322154031272021E1  -1.568938141009153E2  
                        
 6.572633633633633E10   -1.887257838000138E1  -3.884053087668093E1  -5.685124737844269E1  -6.994138986842579E1  -4.015468929033792E1  -8.752437528038071E1  -3.935113649765157E1  -9.404064707823721E1  
                        -5.218325796407912E1  -5.942866730589762E1  -1.641200620785087E1  -2.762783551809955E1  -3.862358268105645E1   1.501040751296272E2  -3.532271352134479E1   1.160062609231411E2  
                        -4.081618823878618E1  -8.060769397350305E1  -3.798088476529846E1   1.513749737283656E2  -1.140145394623140E1   4.716666949485752E1  -4.999906734010199E1  -1.188853665519353E1  
                        -3.864738289013926E1  -8.554800532491092E1  -3.550750984320977E1   1.160367853198657E2  -4.950511076986575E1   2.543886747749411  -8.609769277581874   5.954521627418563E1  
                        
 6.579639639639639E10   -1.122741494814122E1   1.194567197152485E1  -6.048117901157281E1   1.731498589228464E2  -4.151653085224670E1   1.547207242116623E2  -3.957572397036933E1   1.551591162845890E2  
                        -5.140048491855094E1  -1.711016415457275E2  -1.577132506506334E1  -8.341509585896610E1  -3.865972280084277E1   4.290516827844995E1  -3.529566930030610E1   8.294072584940263E1  
                        -4.015250286463562E1   1.572427394584506E2  -3.960483939459304E1   3.506080107822590E1  -9.328274658260675  -1.598722404380180  -4.850318385013265E1  -1.185258493037141E2  
                        -3.946993326721120E1   1.552232023788803E2  -3.445033419082891E1   7.503961488443852E1  -4.917186584643137E1  -1.196712488796423E2  -7.676681011362372   9.364448459900299E1  
                        
 6.586645645645645E10   -8.625669346472728  -3.313238887400263E1  -5.862872379006895E1   7.523391074490755E1  -3.982142080988957E1   3.860031692081698E1  -3.996282240627741E1   3.915245080327442E1  
                        -5.788009515585876E1   1.135100202106333E2  -1.414147394476095E1  -1.288322520888802E2  -3.853918318759572E1  -6.116090299539620E1  -3.347109052977180E1   2.728616173824979E1  
                        -4.059083436532335E1   4.663850528828826E1  -3.929750756698677E1  -7.134533248784695E1  -1.481590035446107E1  -4.197191138321085E1  -5.197834384341160E1   1.233752332727647E2  
                        -3.995441187090736E1   4.578984246855451E1  -3.347437100678277E1   2.541550253321785E1  -4.877785775798454E1   1.178558432874821E2  -1.682326261487350E1  -1.324304909990668E2  
                        
 6.593651651651651E10   -1.261528888493753E1  -8.502739825036893E1  -6.757896699785941E1   6.428261620018876E1  -3.797081098706172E1  -7.837211288675701E1  -3.827507151943014E1  -6.592490849354830E1  
                        -5.199266291096645E1   2.188686892810118  -1.170497231753843E1  -1.716376582199015E2  -3.967086157143019E1  -1.792256398160914E2  -3.228770867868818E1  -2.369071710299102E1  
                        -3.872547980352058E1  -8.448927553950522E1  -3.968484859909790E1   1.746577368077313E2  -1.319508418825634E1   3.092984358901148E1  -5.293532382300496E1   1.749732620684940E1  
                        -3.989740520835186E1  -6.441730343023576E1  -3.281597853911035E1  -2.702177987007744E1  -5.302399805534073E1   1.706617855210025E1  -7.784509428287703  -4.800885554443700E1  
                        
 6.600657657657657E10   -1.703317412647857E1  -3.031449953992976  -5.519310168704232E1  -1.178986018093234E2  -4.045173086100773E1   1.490918552343644E2  -3.974314575830239E1   1.771510303242273E2  
                        -5.618718980738518E1  -1.327590279453996E2  -9.782020035205949   1.602634451987331E2  -3.917435910239144E1   8.578786726887485E1  -3.243171870750130E1  -7.685276313131567E1  
                        -4.020622190433909E1   1.499053012245829E2  -4.016517195652794E1   7.336472692970315E1  -7.849277626232694  -5.351388446222853  -5.295499578843965E1  -1.242923201302371E2  
                        -4.045379823654801E1  -1.790359872774032E2  -3.291493343610813E1  -7.827652207970156E1  -5.492368119735033E1  -1.001717135329132E2  -1.823036869111540E1  -6.670921029988083  
                        
 6.607663663663663E10   -8.241481339886940  -4.406897008835828E1  -5.065109621092680E1   1.261076735828812E2  -4.142571225875087E1   3.140568562772338E1  -4.190574628524225E1   7.019715092406689E1  
                        -5.575931804223744E1   1.139447843495329E2  -8.543288866912626   1.355171025970774E2  -3.984891118720995E1  -2.290261656566032E1  -3.352823154968928E1  -1.306065565016359E2  
                        -4.015782566529553E1   3.246661768725005E1  -4.091372131728508E1  -2.275227717101818E1  -1.040755090023478E1  -4.587402059802447E1  -5.159948578450063E1   1.562350806085123E2  
                        -4.156710958791202E1   7.319961003669202E1  -3.378494966007015E1  -1.327456598857744E2  -5.256246058808678E1   1.465729889823826E2  -8.644851009260929  -1.780963489610612E2  
                        
 6.614669669669669E10   -8.907966428812566  -9.279823020097012E1  -5.295910303928901E1   5.280664439284136E1  -4.071938199637573E1  -8.843980909601318E1  -4.064215078788809E1  -3.302554831359073E1  
                        -5.405845486993982E1   5.265531397422282E1  -8.113622950250061   1.126346394604926E2  -3.919202903558895E1  -1.311818333705267E2  -3.463355729036127E1   1.773829985256270E2  
                        -4.115333834660762E1  -8.825744649775818E1  -3.941015505512375E1  -1.371697785832316E2  -1.709618734842744E1  -1.638373264190239E1  -5.155908202891285E1   4.247163255788809E1  
                        -4.137123565622856E1  -1.408641154952342E1  -3.476914945287201E1   1.765954387163225E2  -5.120772725589895E1   6.646483480415962E1  -5.630077562996043  -1.534412215427531E2  
                        
 6.621675675675675E10   -2.076344680179187E1  -1.116624130510403E2  -5.251976888988236E1  -6.086607923524943E1  -4.153391148301701E1   1.527431347516751E2  -3.990333865279020E1  -1.323002032526889E2  
                        -5.549626992139631E1  -7.862226479563007E1  -9.463846204325401   8.934847048772494E1  -3.940810058418913E1   1.142580035991293E2  -3.678652309723157E1   1.402235309022385E2  
                        -4.222684884354242E1   1.570182280972551E2  -3.921899242507873E1   1.106755097540343E2  -8.202523671132745  -1.629309491272511E1  -4.856634539623325E1  -7.008766864865683E1  
                        -4.036460916727924E1  -1.321641659143766E2  -3.612510209793192E1   1.375589213458303E2  -4.959864744421024E1  -5.245391034121701E1  -1.863001859360837E1   1.665081055343061E2  
                        
 6.628681681681681E10   -1.042025363731785E1  -5.464422223630291E1  -5.804538866729234E1   1.168175416307783E2  -4.354400263489740E1   2.788082595423082E1  -3.920933923486239E1   1.163485757544370E2  
                        -5.126356751360411E1   1.493786031247335E2  -1.329803409192063E1   5.493093964326324E1  -3.905212767653452E1   7.850781873741515  -3.690742098695777E1   9.291346399148529E1  
                        -4.445853357843518E1   2.215816715402211E1  -3.875906540599387E1   1.302768540446417  -7.789257766849998  -5.318226178189041E1  -5.066064631473559E1  -1.711031201490179E2  
                        -4.150667403334922E1   1.173013218142786E2  -3.682956526362973E1   9.309208905514132E1  -5.145217033943009E1  -1.598510012804629E2  -5.393104026725988   1.121282497677853E2  
                        
 6.635687687687687E10   -7.525251911627287  -9.880544809354495E1  -5.167114303423298E1   3.919391566106519E1  -4.301397810975810E1  -6.713223313616001E1  -4.008845674945311E1   1.034013710007039E1  
                        -5.820282991352417E1   3.840533324546082E1  -1.949644051412045E1  -3.209825280886879  -3.836705341674978E1  -1.025459087662701E2  -3.662320776732286E1   6.629550700106726E1  
                        -4.504623446074250E1  -7.222859957140172E1  -3.798998865727728E1  -1.072465594405884E2  -1.229588006080506E1  -7.325047466069502E1  -4.773103368539348E1   7.804467249476102E1  
                        -3.945154144191329E1   1.268307827011144E1  -3.706474127911655E1   5.782531039007158E1  -4.925116643094192E1   9.520508838922159E1  -7.787120003450013   1.296048269325537E2  
                        
 6.642693693693693E10   -1.159763572171324E1  -1.360475218569511E2  -5.025727062147806E1  -7.231601354559537E1  -4.377241644245282E1   1.683871569354155E2  -3.862581915970399E1  -1.126496206462101E2  
                        -6.698218728118498E1  -2.249782503350605E1  -1.731740941528263E1  -9.441789452579563E1  -3.982023624590550E1   1.362044902156812E2  -3.526222111676897E1   1.859108539446623E1  
                        -4.254716277574325E1   1.680147841181059E2  -3.963743991301939E1   1.310431149270522E2  -9.555268262511099  -3.328419187157593E1  -5.213381041855309E1  -4.799926423012858E1  
                        -3.837590167674573E1  -1.040546203481632E2  -3.536021784373180E1   1.384426581769389E1  -5.191820880619399E1  -3.854472401470645E1  -1.922115938999588E1  -9.295613395068939E-1  
                        
 6.649699699699699E10   -1.282569607024014E1  -7.622223787243782E1  -5.843705789839806E1   1.550993857580079E2  -4.296014226188402E1   4.029235197602290E1  -4.093079900770691E1   1.328212704737188E2  
                        -5.315492250021941E1  -1.623363762620294E2  -1.283640352174807E1  -1.369433759236252E2  -4.135523063296917E1   2.800494548439688E1  -3.459959530947281E1  -3.391615875683430E1  
                        -4.381202965774143E1   5.442277303479891E1  -4.014416317252058E1   1.920459720355462E1  -6.667408470893718  -6.307591805074333E1  -4.918655741679145E1  -1.638685683692631E2  
                        -3.859871059192072E1   1.369104208314932E2  -3.473787868968960E1  -3.325538684419801E1  -5.377913225872667E1  -1.755283865745285E2  -7.825092482465142   1.561805998985667E1  
                        
 6.656705705705705E10   -6.962900293281705  -1.055111609346301E2  -5.993119514342287E1   1.094569610531307E2  -4.522299257790395E1  -6.056771245834129E1  -4.204142492523565E1   2.986948670983804E1  
                        -5.520689496773876E1   1.002268212482167E2  -9.837219160239972  -1.703774222243506E2  -4.187327544611345E1  -8.259471846816510E1  -3.361793734983688E1  -8.531244442941710E1  
                        -4.591643780344035E1  -5.747801447985122E1  -4.196352307679226E1  -8.101898449283053E1  -8.437850080673139  -9.349337854017651E1  -5.232415377582192E1   7.821083675325237E1  
                        -4.049346277312216E1   3.146335969702127E1  -3.468631921172418E1  -9.360005473438314E1  -5.000322032125140E1   9.438414117937518E1  -1.634399533600703E1   6.725025026027942E1  
                        
 6.663711711711711E10   -8.117415679681614  -1.422990367125964E2  -5.487032810913910E1  -1.165505909838198E1  -4.619580458881058E1  -1.690418712457136E2  -4.159245663286799E1  -9.273232118885413E1  
                        -5.937649549257323E1  -6.348469666574957E1  -8.808341806278223   1.608835146419108E2  -4.142833673670329E1   1.729832666137752E2  -3.578441773625909E1  -1.463096418960698E2  
                        -4.592426394863892E1  -1.769117191778871E2  -4.143427455299189E1   1.693483060723478E2  -1.147024541118707E1  -6.368243617332681E1  -5.066582927760587E1  -1.506184298387770E1  
                        -4.133609567544588E1  -7.730193325495739E1  -3.417112666670333E1  -1.447653083515480E2  -5.122731599439487E1  -1.777622185475365  -9.020840897350041  -1.369730942639640E2  
                        
 6.670717717717717E10   -1.623379015356096E1  -1.245196059243554E2  -5.797904519269374E1  -9.521214936664541E1  -4.475668084995744E1   6.979550263237991E1  -4.099414161225251E1   1.723981856671803E2  
                        -5.296639624279914E1  -8.832299441490416E1  -8.542682515512025   1.289414512397748E2  -4.214292377480237E1   6.880294495710307E1  -3.565901180216569E1   1.620458085548549E2  
                        -4.789484853380923E1   7.148011614935240E1  -4.257582658631348E1   6.331396355136712E1  -6.286557951053647  -7.130687189802238E1  -5.489261617396105E1  -1.138053566229562E2  
                        -4.049530907480975E1   1.733991958468860E2  -3.653978832972204E1   1.637398180777511E2  -5.502976879369082E1  -1.256860842233305E2  -8.403552204483264  -1.059176394271318E2  
                        
 6.677723723723723E10   -7.433697736941861  -1.109363483506168E2  -5.415805261911763E1   1.311430151287519E2  -4.780771015754115E1  -2.510404616444850E1  -4.114238987161576E1   6.285993168076331E1  
                        -5.697100342562955E1   1.794033551022809E2  -8.855046081205233   9.728959701618358E1  -4.059110664275261E1  -3.149791788179595E1  -3.729898678937186E1   1.167417636002621E2  
                        -4.587888456110269E1  -1.629853488220394E1  -4.181530224200270E1  -3.235825252501228E1  -6.275355269422570  -1.028670030795364E2  -5.439619894921836E1   1.380896046533731E2  
                        -4.274483467898577E1   6.878687408477312E1  -3.884510507570471E1   1.151414734407793E2  -5.542345881653340E1   1.480666384082039E2  -1.296244346112486E1   1.326171341524286E2  
                        
 6.684729729729730E10   -6.787089138313794  -1.453946962518418E2  -5.746229701911789E1   2.329434572325379E1  -4.353295261964939E1  -1.382779735951342E2  -4.124920801383126E1  -3.635138948341708E1  
                        -5.152324408796316E1   2.396869814202638E1  -9.430712091243521   6.445017493463224E1  -4.029535423715343E1  -1.401568673969752E2  -3.973205678149655E1   6.531912354033891E1  
                        -4.408752067083184E1  -1.182749668738680E2  -4.090872474102351E1  -1.415336279688781E2  -1.103497083509823E1  -1.081143195776844E2  -5.478128777515254E1   4.235004868623134E1  
                        -4.245810333071455E1  -3.307658150503453E1  -3.952280866752455E1   6.933017972761027E1  -5.534318555581527E1   6.405547985411580  -5.152833063231977   1.418826079628906E2  
                        
 6.691735735735735E10   -1.264822036651986E1  -1.670572757562013E2  -5.317845398843747E1  -1.144601906591450E2  -4.290568772799691E1   9.562532085331004E1  -4.106538183790662E1  -1.552881922605155E2  
                        -5.475337484156557E1  -6.956495094209849E1  -1.051324672438225E1   2.972942918863719E1  -3.838723733427220E1   1.103924511420015E2  -4.317191640709638E1   3.331551904172785E1  
                        -4.241054761512000E1   1.164589686347372E2  -4.003899956650995E1   1.001246058859937E2  -7.411448316208580  -8.268019049312301E1  -5.416232960869338E1  -1.075932447990730E2  
                        -4.012167917382383E1  -1.341632085756679E2  -4.142938165950438E1   3.358083892044893E1  -5.401341586980815E1  -9.884798125475018E1  -9.603684627250233   1.475699205374820E2  
                        
 6.698741741741741E10   -9.344227858231172  -1.153173262707087E2  -5.522177480163330E1   1.594058353823416E2  -4.245018476926089E1  -1.498253458307699E1  -3.799861784368672E1   9.453175428380465E1  
                        -5.968751015465312E1   1.012194601057007E2  -1.286871324449916E1   2.129150613516687  -4.033530890454824E1  -1.142529376405981E1  -4.381694578887568E1  -1.745442132024121  
                        -4.281790307658338E1  -8.404437609901121  -3.922730869940688E1  -2.180560361517171E1  -5.404410974774174  -1.148348250261416E2  -5.354570915866926E1   1.516885298207318E2  
                        -3.832911471836566E1   1.002537980056864E2  -4.137130886402380E1  -7.293726235652350E-1  -5.126090372918061E1  -1.785426844006358E2  -1.017848831785696E1   4.498203463747524E1  
                        
 6.705747747747747E10   -6.755153495821936  -1.456248763442106E2  -5.769117105910128E1   3.100269631784972E1  -4.103562804902784E1  -1.335098525335909E2  -3.926202499414989E1  -1.756094351987138E1  
                        -5.062088046611010E1   4.303944868048278E1  -1.559576305933161E1  -5.828535176926692E1  -4.040117233712441E1  -1.216155581621717E2  -4.090175020326466E1  -3.818496203793082E1  
                        -4.254202762723500E1  -1.197374640532836E2  -3.843422697381596E1  -1.261323416311446E2  -8.722944205209027  -1.364126060486834E2  -5.332216456959861E1   5.611660421128257E1  
                        -3.864774551922120E1  -1.045873988983824E1  -4.002154545149821E1  -3.523486350313853E1  -5.349616131500463E1   5.003883680889138E1  -5.683455774536029   6.176324015729968E1  
                        
 6.712753753753753E10   -1.112553665097101E1   1.765203487773341E2  -5.836836931180543E1  -9.573160874880703E1  -4.059788525873109E1   1.117179215340316E2  -3.919946438216964E1  -1.264761599743594E2  
                        -5.796281393330051E1  -3.704754597914128E1  -1.489182266509405E1  -1.301824721004381E2  -4.008467018618118E1   1.335531292207595E2  -4.004138971795718E1  -8.643585015280537E1  
                        -4.174222724861531E1   1.050918361186642E2  -4.035238145332421E1   1.188716349750914E2  -1.039574458980720E1  -1.020618526907962E2  -5.593610750542097E1  -6.731337557377196E1  
                        -3.872923071561458E1  -1.168579838125065E2  -4.075174461799885E1  -9.043842447083208E1  -5.331078567296448E1  -8.631008570515955E1  -1.781260170569194E1   9.483503846417986E1  
                        
 6.719759759759760E10   -1.502222266589802E1  -1.024761160153888E2  -6.026780170965485E1   1.687844109330017E2  -4.037331645446723E1   2.661311918293481  -3.886662731546139E1   1.175392080965017E2  
                        -5.567917415938253E1  -1.799833266814806E2  -1.100128799254143E1   1.782712654623026E2  -4.130303126602188E1   1.559078785880209E1  -3.939972966001297E1  -1.475925989653591E2  
                        -4.119677633173676E1  -7.188063778170173  -4.061513591502127E1   6.166621528113410  -5.950116901747406  -1.214709172528084E2  -5.507567028856384E1  -9.482900960305398E1  
                        -3.926774042040217E1   1.231486014038080E2  -3.974604313207988E1  -1.528238721682301E2  -5.711327870001171E1  -1.664654267097780E2  -8.521984818117964  -7.212308870599780E1  
                        
 6.726765765765765E10   -8.076631126610307  -1.414709178735570E2  -6.356787053851042E1   1.024078822911482E2  -4.073563642940237E1  -1.189593017465506E2  -3.963491507809052E1   1.191673896589092E1  
                        -6.247208881069639E1   9.019575773001057E1  -9.217728839633629   1.493948764326863E2  -4.212798857774510E1  -7.989764781642592E1  -4.175187573688824E1   1.617377408148233E2  
                        -4.070095646784384E1  -1.220987439840133E2  -4.113744199657450E1  -8.336226651079961E1  -6.655042206626661  -1.520008222064167E2  -5.748941829336622E1   1.742403633743674E1  
                        -3.953520809719796E1   1.401382079455065E1  -4.199321937807123E1   1.708480144844515E2  -6.151629225399875E1   1.146392317666256E2  -1.262009415702774E1  -4.457445919971536E1  
                        
 6.733771771771771E10   -1.119902518895296E1   1.709699608664171E2  -6.032095063063418E1  -4.191980417355551E1  -3.918194390485402E1   1.240567178982975E2  -4.228031402255363E1  -9.502990596839481E1  
                        -5.444294520049808E1   4.306815769022478  -8.089583841685220   1.217595625527010E2  -4.019322598864646E1   1.668332217547580E2  -4.397678984375195E1   1.020056063517771E2  
                        -3.850075314159777E1   1.173991540377588E2  -4.068405325599978E1   1.664753574325526E2  -1.356994220694702E1  -1.437480729588598E2  -6.226219641371143E1  -5.955424984136304E1  
                        -4.182358534926498E1  -8.426853946059457E1  -4.415678562125333E1   1.038686607915252E2  -5.535054805638405E1  -1.932569540712436E1  -1.092900175007837E1   1.576520756505386E2  
                        
 6.740777777777777E10   -2.276935630173239E1  -8.828049392945860E1  -5.180989781910737E1  -8.407891874187672E1  -3.838334892046390E1  -8.081279264385339  -4.085505741914508E1   1.462590501876281E2  
                        -6.031624990339378E1  -1.628562195819468E2  -8.516684073345420   9.988339201762905E1  -4.226719173137213E1   6.136099198961819E1  -5.046567482357938E1   3.361246479941246E1  
                        -3.857726095501250E1  -5.709821923094579  -3.998057255987939E1   5.551419682206172E1  -7.064385932812979  -1.263746433141488E2  -6.099432125069232E1  -1.685067179681545E2  
                        -4.136769601905536E1   1.603153776045929E2  -4.795574084478647E1   2.871736459791170E1  -5.393444203140763E1  -1.227636413413032E2  -6.053911014461571   1.720204841113531E2  
                        
 6.747783783783783E10   -1.041874131673904E1  -1.331556460641861E2  -5.459742762314951E1   1.411014589022289E2  -3.903756594496196E1  -1.259498663232054E2  -3.958928259874777E1   4.406179585105885E1  
                        -5.158352762513702E1   1.485198784432845E2  -1.066224875217179E1   7.883413371017963E1  -4.158687571897922E1  -4.128071891802768E1  -5.817966916119811E1  -1.590619377187797E2  
                        -3.933642025681758E1  -1.225920193552283E2  -4.182517995790769E1  -4.522687031653394E1  -6.164548675482098  -1.615553295335067E2  -5.572620984690939E1   1.367880338794009E2  
                        -4.039423736507880E1   4.437547532565631E1  -5.702255816276387E1  -1.634832108428557E2  -5.763401894458773E1   1.151639546190676E2  -1.460792129411999E1   1.719483832113878E2  
                        
 6.754789789789790E10   -1.211228577080951E1   1.593019219850831E2  -5.800871796604865E1   3.208191136666893E1  -3.767401238611777E1   1.215790909808897E2  -3.940772436440322E1  -5.278561654025568E1  
                        -5.218303339423545E1  -2.928124489903807E1  -1.329986911776690E1   4.554780554045995E1  -3.850996476470797E1  -1.550509375957544E2  -5.044040953099241E1   1.012079552842259E2  
                        -3.802545232184477E1   1.209855594319047E2  -3.898230382352292E1  -1.588288896021732E2  -1.095410909014965E1   1.729236276278392E2  -5.402031473162740E1   8.719684897662507  
                        -3.985232454958538E1  -5.497304644913048E1  -5.106246760046133E1   1.108348075497580E2  -5.565640295337747E1   4.471933780137590E1  -7.282660253596957   8.392529101379841E1  
                        
 6.761795795795795E10   -1.880164722505227E1   2.669536600220922E1  -5.956068235783971E1  -1.002777720547906E2  -3.730121637547649E1  -8.347828284970069  -3.925712755183968E1  -1.624204655368512E2  
                        -5.373313218578696E1  -1.028812218356146E2  -1.839125298268156E1  -3.835955334978559  -3.846242436579890E1   8.957790537580470E1  -4.498477889592625E1   5.823133346677622E1  
                        -3.738852608151890E1  -7.651332196782433  -3.809017403593118E1   9.002502754876645E1  -9.942941570614410  -1.410280139364926E2  -6.482833189761992E1  -5.770840438093038E1  
                        -3.968181130411207E1  -1.588792114390203E2  -4.513356639718490E1   4.874075764514431E1  -5.772574739575351E1  -6.525900829878680E1  -5.867814802934465   1.117340217191895E2  
                        
 6.768801801801801E10   -1.435730703520696E1  -9.630360630614707E1  -5.677494177656761E1   1.248882899515893E2  -3.809008089952912E1  -1.277888919317560E2  -3.913429500621940E1   7.327650130045529E1  
                        -5.875436866729596E1   1.199752434710503E2  -1.722766120433207E1  -8.731799213246732E1  -3.977082906307248E1  -2.457159804400920E1  -4.340255854105415E1  -1.670869448213825E1  
                        -3.802686771872923E1  -1.192457174155119E2  -4.029403656634851E1  -2.335253389740919E1  -6.863882762371055  -1.729618650378745E2  -5.686805777745097E1   1.191143545078237E2  
                        -3.816857920145851E1   8.077159385356110E1  -4.349842864753119E1  -1.550515100925212E1  -6.085206470361710E1   1.740459781108820E2  -1.843958941728440E1   1.061130489402621E2  
                        
 6.775807807807807E10   -1.670854630885180E1   1.565037410880028E2  -5.678918156056609E1   6.099930352986944E1  -3.793604483357920E1   1.208953494827609E2  -3.893469779466940E1  -4.509510345043096E1  
                        -5.567689346801539E1   4.172252939401123E1  -1.365119555102093E1  -1.340655661151627E2  -3.958460529616007E1  -1.300778003851038E2  -4.294399041834946E1  -6.363814175972978E1  
                        -3.900915292133310E1   1.184498099371301E2  -3.948110328831051E1  -1.394919081355357E2  -9.480056213036297   1.557094015570918E2  -5.696042237417588E1   2.715434329657042E1  
                        -3.914988784666156E1  -3.645441265160198E1  -4.220493913781226E1  -7.175154104084426E1  -5.340876988192012E1   4.800531592362435E1  -9.582205576136133  -3.959021017950506  
                        
 6.782813813813813E10   -1.394299638249411E1   3.493035821076140E1  -5.320144950603953E1  -8.762505605199918E1  -3.741562900114846E1   2.128171057576578  -3.934765877763043E1  -1.521224206434921E2  
                        -5.432194279963204E1  -1.048022012657874E2  -1.261253598059002E1  -1.703151218822756E2  -3.968971272987506E1   1.145656575284941E2  -4.500278343240647E1  -9.819947277539967E1  
                        -3.821285687768960E1   2.614980129794655  -4.021908186180826E1   1.141235352297346E2  -1.518355749739903E1  -1.518444183013385E2  -5.604933047825303E1  -8.487681877061220E1  
                        -3.980465602329458E1  -1.433229687182632E2  -4.379889001318449E1  -1.073680334053329E2  -5.515208461222549E1  -9.210786117697866E1  -1.093155981847080E1   2.835169626111802E1  
                        
 6.789819819819819E10   -1.335075087730582E1  -4.752540095982410E1  -5.766665685013031E1  -1.568601994366843E2  -3.900216347430089E1  -1.238393215405796E2  -3.963246610277724E1   1.066082115369036E2  
                        -5.487281685215253E1  -1.535210104647634E2  -1.080299109198286E1   1.558257417495433E2  -4.038527695848828E1   5.550500888225130  -4.761135715233930E1  -1.265626748140580E2  
                        -3.872869399610858E1  -1.160050333216327E2  -4.033852897621196E1  -1.724640578037193  -7.739715553133615  -1.702012776861253E2  -5.989472238792687E1   1.674496505361653E2  
                        -3.975753418815984E1   9.881884441062404E1  -4.492823284110570E1  -1.232567512101135E2  -5.491636096762171E1   1.506508494074729E2  -1.351908171895292E1  -1.664793603386573E2  
                        
 6.796825825825826E10   -2.314551722505115E1  -1.213175195394455E2  -6.262942968814507E1  -2.694528535981887E1  -3.849789121043187E1   1.255932027265667E2  -4.145748865522843E1  -1.015729248076716E1  
                        -5.793811064802166E1   1.872522994784371E1  -9.739293919895980   1.251145618727802E2  -4.336846360994043E1  -8.872118574876470E1  -4.139850482737059E1  -1.536382302744485E2  
                        -3.823340793277657E1   1.258569445297763E2  -4.145728276716913E1  -9.628353322288692E1  -7.591782727493924   1.543874196679909E2  -6.555343292282056E1   2.654848917145087E1  
                        -4.083246064533972E1  -6.878465337297572  -4.192074025188428E1  -1.548692832512929E2  -6.299293251161037E1   1.337277409409404E2  -8.716632025082866  -1.240189175779518E2  
                        
 6.803831831831831E10   -1.483295029206675E1   2.459545440618877E1  -5.655391681094369E1  -3.159467304629717E1  -3.753104839454218E1   2.513071764444577  -4.101495618566121E1  -1.124799278079522E2  
                        -5.835691063431236E1  -8.730035565021377E1  -9.366498941229985   9.816680425501613E1  -3.992175170289022E1   1.566156295453183E2  -3.835821603805773E1   1.484972774594886E2  
                        -3.786055114954490E1   3.147279131848608  -3.888006774340517E1   1.579135099229866E2  -1.425064668962099E1   1.377547603421750E2  -5.459468202322239E1   1.618704124057752  
                        -4.031143674999473E1  -1.115546530586166E2  -3.865157055194727E1   1.547902669640702E2  -5.465851641802740E1  -7.920344260899942E1  -2.510957006425656E1  -1.407165035325739E2  
                        
 6.810837837837837E10   -1.059537365930364E1  -3.684496722933189E1  -5.520524736103349E1  -1.546829854374615E2  -3.832900744290609E1  -1.229850783856340E2  -3.956118223880611E1   1.278996571841939E2  
                        -5.485045153329197E1  -1.741417986623136E2  -8.978006239604957   7.669574087899783E1  -4.005533121462990E1   4.638291160980051E1  -3.728360457720373E1   1.121255108889612E2  
                        -3.857169677631966E1  -1.222095689110001E2  -3.885027153285685E1   3.911442848288402E1  -1.086033746019871E1  -1.767624619696584E2  -5.251760258131381E1  -1.257576146099998E2  
                        -4.135835676727721E1   1.378795705578811E2  -3.706388546154760E1   1.044783149524611E2  -6.589030415363327E1  -1.468446201110066E2  -7.129582699989215   1.325533233173823E2  
                        
 6.817843843843843E10   -1.562967645483076E1  -1.009226144257397E2  -5.316888481563243E1   7.667731166096108E1  -4.028943125973429E1   1.232118842430606E2  -4.157845985675434E1   3.174267615283968E1  
                        -5.667486364670710E1   6.385824469131375E1  -9.606415318906368   5.334322202078848E1  -4.009419128750876E1  -4.976253476527602E1  -3.673838524626235E1   5.530884579006448E1  
                        -3.982450557772868E1   1.277793832499161E2  -4.013910049736624E1  -6.806975651811766E1  -8.341954940331057   1.392656204338870E2  -5.591834787774442E1   1.436488982860168E2  
                        -4.047161613067341E1   3.200186698543220E1  -3.594118073335604E1   5.594207460398989E1  -6.065388858198784E1   1.275306035419514E2  -6.558925954292788   1.471160270234576E2  
                        
 6.824849849849849E10   -1.801879809226284E1   3.518983885620147E1  -5.376369652363217E1  -1.402078638338583E1  -3.909547617595795E1   1.414971106143277E1  -3.976379189156369E1  -7.898365249114377E1  
                        -5.628882728552366E1  -5.000646949057830E1  -1.106727666747893E1   3.220667006621762E1  -3.878948613272814E1  -1.665325788260788E2  -3.553648972260571E1   2.750519612772623  
                        -3.917359042667537E1   9.858390679255990  -3.868707178458192E1  -1.749817752520143E2  -1.245716541686484E1   1.021493234457529E2  -6.137400215717068E1  -6.108672828808207E1  
                        -3.960014004203016E1  -7.786475858011964E1  -3.513555876016298E1  -5.954778769514282E-1  -5.570229057986810E1   2.281881535220669  -1.484743720597635E1   1.041759729468905E2  
                        
 6.831855855855856E10   -9.860268251287394  -2.785077030185265E1  -6.879169396785333E1  -1.026351641923838E2  -3.886685552140722E1  -1.022223561916514E2  -3.935796902491015E1   1.614778547387658E2  
                        -5.275409287276983E1   1.776775246847808E2  -1.456310388256773E1   4.441561404509655  -3.966115357431365E1   7.674302430170813E1  -3.455457531094790E1  -5.741042350598769E1  
                        -3.890337847715214E1  -1.016130457750140E2  -3.927651996572372E1   7.499769227989451E1  -1.777866157974038E1  -1.793200867641072E2  -6.463452260590780E1  -9.941198447548403E1  
                        -3.968546684488577E1   1.739913259066865E2  -3.528921757579111E1  -5.388039493589748E1  -6.791112537836001E1  -1.446818313328120E2  -6.106974549472120   5.453722595231616E1  
                        
 6.838861861861861E10   -1.218265126674414E1  -8.762485978187341E1  -5.138537979618157E1   1.456221188930572E2  -3.865676921768475E1   1.366019634571773E2  -3.835871556805645E1   5.926007414862844E1  
                        -5.899508998631311E1   4.509209011467659E1  -2.317661307361134E1  -4.254592944726640E1  -3.888339420901520E1  -3.570253950678682E1  -3.532948907507740E1  -9.094383101006991E1  
                        -3.909988072986431E1   1.374019002462726E2  -3.973933715105865E1  -4.123078140170306E1  -1.018845030924385E1   1.376080070545373E2  -5.803735985225715E1   8.103635889382132E1  
                        -3.864248740716229E1   6.019491886009356E1  -3.524016808198196E1  -9.882841215930247E1  -5.800202500246395E1   1.647663907765326E2  -7.254531026118096   7.705265816482167E1  
                        
 6.845867867867867E10   -3.429408854345554E1   1.256266224182164E2  -5.276485791144518E1   2.883096083101927E1  -3.799739225598934E1   2.213990599560404E1  -3.983511114913978E1  -5.915911931971774E1  
                        -5.731128423154180E1   4.012054209027807E1  -2.015675606110493E1  -1.654234482166915E2  -3.984287522788137E1  -1.423989782202676E2  -3.533549550372854E1  -1.406880192486548E2  
                        -3.854128316368940E1   2.396986956215984E1  -3.890148848151848E1  -1.436108020475055E2  -1.185788334482605E1   8.740943597927908E1  -4.963366368279198E1   5.065591169291245  
                        -3.893469844716331E1  -5.536161445578649E1  -3.508150302893895E1  -1.425598666954496E2  -5.732663323689005E1   6.059722954405215E1  -2.146134272984422E1  -2.061302417215995E1  
                        
 6.852873873873873E10   -1.301436697827000E1  -2.963977639273498E1  -6.038781103988703E1  -9.219348168881521E1  -3.879905244062835E1  -9.808870617052151E1  -4.116589996594664E1  -1.681260476383786E2  
                        -5.508315669127509E1  -1.079058195196394E2  -1.374806791098468E1   1.580589469420755E2  -4.030083677504960E1   1.040786427989097E2  -3.472001418045278E1  -1.795552423648976E2  
                        -3.835252294075980E1  -9.765788780606515E1  -3.923837104998494E1   1.008125225192196E2  -2.970113245982690E1   1.783073303153795E1  -6.710756371901293E1  -3.782599405877644E1  
                        -4.117297787657949E1  -1.581024600034547E2  -3.479908777286199E1   1.754511905071300E2  -5.837357173527529E1  -6.866195695983274E1  -1.067582745384387E1  -2.968803543457610E1  
                        
 6.859879879879879E10   -1.107254462685503E1  -9.623467205480594E1  -5.735465955973699E1   1.353428000069816E2  -4.026383816769490E1   1.434987947750360E2  -4.169631906250437E1   7.480540693180137E1  
                        -5.572126589428776E1  -1.568922659846356E2  -1.070429671935235E1   1.303670751017131E2  -4.076698015839930E1  -1.169840076113253E1  -3.326397391345874E1   1.313119915546446E2  
                        -3.961851028739869E1   1.415170955538330E2  -3.969265078740698E1  -6.695356582498206  -1.400902849732454E1   1.456476947270762E2  -6.183762288209260E1   1.626605219704107E2  
                        -4.020456453597763E1   8.560193905937281E1  -3.324963448265004E1   1.333486968980365E2  -9.454731985167692E1  -3.965395176613885E1  -1.830827434541224E1   3.566261375187992  
                        
 6.866885885885886E10   -1.568362196218059E1  -1.619374642135153E2  -5.713402184465604E1   5.472038585350678E1  -3.922191942413148E1   3.866540668600306E1  -4.052424947872200E1  -2.726994661141702E1  
                        -5.269583186369699E1   4.657615667484884E1  -9.648947192733040   1.058484418352905E2  -4.050397281770523E1  -1.099832648667052E2  -3.360381463612384E1   8.295063752889841E1  
                        -4.001227957848979E1   3.904417148080028E1  -4.033854243269684E1  -1.204166103471018E2  -1.261729532210055E1   8.010795619667751E1  -5.202624541212854E1   4.811583602097372E1  
                        -4.161141842782555E1  -1.508008444858269E1  -3.243140500956839E1   8.631916791224168E1  -6.295907349750955E1   8.019421400120766E1  -9.522596824225973   1.705345231227511E2  
                        
 6.873891891891892E10   -2.211798708939587E1  -2.873060788851464E1  -5.535712130233903E1  -1.357941185598747E2  -3.878962541891404E1  -8.439246287222878E1  -4.119914283532292E1  -1.303074544412842E2  
                        -6.144662546664529E1  -2.788047730546543E1  -9.442475985247400   7.833476494545063E1  -3.995876546547643E1   1.460908078495108E2  -3.091267728795301E1   3.380211472809587E1  
                        -3.913702775973287E1  -7.700393994014917E1  -3.943213750282600E1   1.365028647689013E2  -1.987268951523121E1  -8.448912039235744  -5.325347461354109E1  -4.706248105337846E1  
                        -4.082532599222675E1  -1.243628850806025E2  -3.213255541919163E1   3.375353232759431E1  -5.930737604865871E1  -6.368474841199619E1  -8.130539527029047  -1.551755899413411E2  
                        
 6.880897897897897E10   -1.220233870733382E1  -1.084160864130432E2  -5.768826579349830E1  -1.782115553493931E2  -3.972431988806495E1   1.648379708984912E2  -4.184657023568576E1   1.232642064117529E2  
                        -6.000155514340173E1   1.506686966312294E2  -9.946570886190461   4.755050184186310E1  -3.970310975193725E1   3.134899481316988E1  -3.117574641224397E1  -1.687877361664879E1  
                        -3.952129318187513E1   1.592503108663738E2  -3.832931348931425E1   2.171600408250221E1  -1.837627713967234E1   1.731136194904183E2  -6.817980262649337E1  -1.229724474545280E2  
                        -4.218507137014204E1   1.270317813035960E2  -3.119719527845486E1  -1.968365304048044E1  -6.515822470121138E1  -8.407520356442311E1  -1.413193621204203E1   9.826487837779023E1  
                        
 6.887903903903903E10   -1.199461090262322E1  -1.707481101569881E2  -6.498407637000544E1   4.437822910758193E1  -3.793804056555989E1   5.271502016346937E1  -4.221059006301895E1   1.872006402939856E1  
                        -5.709660251793093E1   5.232543809496020E1  -1.134710623745932E1   1.248562239282605E1  -3.883337554206605E1  -8.227279274776942E1  -3.053550865309229E1  -6.322332798573947E1  
                        -3.828193973259960E1   4.831503166649323E1  -3.912752986147087E1  -8.351971791757678E1  -1.538867741985731E1   9.741895983570757E1  -6.174153301934799E1   1.480012004822495E2  
                        -4.109418738430677E1   2.337307793165126E1  -3.149732850867459E1  -6.781990752813594E1  -6.170665622404964E1   1.214078863467000E2  -4.522107790462496   9.220124328425671E1  
                        
 6.894909909909909E10   -2.098164021891210E1   1.417345966969807E2  -7.033560513235919E1  -2.867077462577218E1  -3.732010697322193E1  -6.834295947062834E1  -4.062646918734686E1  -9.629841490288142E1  
                        -6.185321934589126E1  -7.108822556012743E1  -1.268818316599334E1  -2.273351908204304E1  -3.844634525018458E1   1.675003652449620E2  -3.219620227930224E1  -1.125734862954594E2  
                        -3.735320349030653E1  -6.978400986135972E1  -3.908503279467020E1   1.675206038610860E2  -1.902039919101616E1  -6.390540641642860  -5.215217171506248E1   1.219920332393991E1  
                        -3.941421712853146E1  -8.896631629767087E1  -3.192586951183889E1  -1.130948917640267E2  -6.021909249169367E1  -2.659755169917941  -7.987754073155437   9.876356860217814E1  
                        
 6.901915915915915E10   -1.425222148345192E1  -1.339867791174848E2  -6.266472437527025E1   1.798133050599438E2  -3.796120148916588E1   1.679342938164304E2  -3.921714462347897E1   1.459848256075990E2  
                        -5.903684812895948E1  -1.640643130121134E2  -1.415130156813929E1  -6.353704540238239E1  -3.876431302374559E1   5.894446961628447E1  -3.264043617250054E1  -1.642416751889526E2  
                        -3.754274658290284E1   1.648371391863904E2  -3.952931691970699E1   4.768853088204715E1  -1.741521665065026E1  -1.401069587039641E2  -5.815336864902439E1  -1.636789784115050E2  
                        -3.961605995471216E1   1.502136395088773E2  -3.176875383648353E1  -1.657450028299340E2  -5.743774707555764E1  -1.196490973673722E2  -1.180019989584162E1   1.844004429017828E1  
                        
 6.908921921921921E10   -9.442544039397166   1.773628031300264E2  -6.528450826019595E1   2.409931118792548E1  -3.783657954428721E1   5.047127005203972E1  -3.960299684190700E1   4.066158185234492E1  
                        -6.127536068941416E1   2.970677641293460E1  -1.636426647973913E1  -1.154950994640931E2  -4.015121723295022E1  -5.878873929846154E1  -3.252322054837600E1   1.496860560803702E2  
                        -3.877017356832679E1   4.869956329125253E1  -3.873629422233847E1  -5.544916891928953E1  -1.583440963826609E1   1.301449164467613E2  -5.203752326205481E1   3.525188803474097E1  
                        -3.904110964878097E1   4.266588180352680E1  -3.215992748587221E1   1.509719325305604E2  -5.485275914077062E1   1.514872383940000E2  -6.736467731414018   7.499412345792710  
                        
 6.915927927927927E10   -1.125323355559213E1   1.378310948698172E2  -6.117777462486472E1   5.935408680661038  -3.751461195819385E1  -6.395733746887675E1  -3.975674904134143E1  -6.777000728697654E1  
                        -5.958819367229207E1   8.277288019945301E1  -1.427596452481135E1  -1.769968518213662E2  -4.033440534050219E1  -1.602824990620456E2  -3.193278246480926E1   1.097700729424416E2  
                        -3.807074495788834E1  -6.376888986526949E1  -4.032049191542552E1  -1.742343148154446E2  -2.334413092973259E1  -4.852212402988827  -6.513480045144694E1  -5.843135203499659  
                        -3.928249932938039E1  -7.348463211685726E1  -3.190169351639405E1   1.122322147531682E2  -6.358711368685166E1   7.629296999316075E1  -1.270216575886079E1   3.049501674753196E1  
                        
 6.922933933933934E10   -1.887142336564714E1  -1.750381737548102E2  -5.946188439950555E1  -1.360785349791195E2  -3.808259568047073E1  -1.779580266808953E2  -3.927612589755387E1   1.681243988704924E2  
                        -6.411019628764016E1  -5.484457572025132E1  -1.130833148849444E1   1.326665388678243E2  -3.970092358286354E1   9.014296483709978E1  -3.125870146157336E1   6.309695834277341E1  
                        -3.752250017462566E1   1.796575427590508E2  -4.130988299541905E1   8.930007778573402E1  -1.599955706807734E1  -1.335410362380975E2  -7.306924002563301E1  -9.827342978373596E1  
                        -4.061588299878860E1   1.723505424519220E2  -3.122377075622712E1   6.463476818503452E1  -6.067761111184149E1  -1.327853617278561E2  -1.247209669906180E1  -1.171751859552368E2  
                        
 6.929939939939940E10   -9.421856661478323   1.755490046636029E2  -5.838642143215778E1   5.210524365159090E1  -3.689245661351748E1   6.259852729227588E1  -4.075233234833461E1   7.137613371779936E1  
                        -5.650789068215254E1   1.650494558033485E2  -9.232908189469379   9.868938400986542E1  -4.189785544672343E1  -2.051310842112478E1  -3.044484367478455E1   2.027098340149269E1  
                        -3.673337931255207E1   6.326964889330873E1  -4.099528556699133E1  -2.336516971813463E1  -1.418471148738766E1   1.609900758815843E2  -6.321290360161463E1   9.705437914190664E1  
                        -4.118619893833290E1   7.212367262368797E1  -3.085434045104313E1   1.541002739742458E1  -6.163648011243017E1   1.637648468340545E2  -1.294705035354317E1  -9.479533624765476E1  
                        
 6.936945945945946E10   -8.300116760973859   1.366530088754364E2  -6.167775022004190E1  -1.260387306974404E1  -3.629525648438095E1  -5.513093962538020E1  -4.146708308584197E1  -3.157992634745322E1  
                        -6.424365637352690E1   4.241373695790330E1  -8.267198933799589   7.277867566666750E1  -4.040402199488161E1  -1.293827785835290E2  -2.994757504999442E1  -2.717938209450463E1  
                        -3.604195939508255E1  -5.804929018318774E1  -4.000289286304655E1  -1.401070441556858E2  -2.685692261297276E1   1.058411784465930E2  -5.837992199471941E1   1.756427674010958E2  
                        -4.232424790554047E1  -3.822458998343741E1  -3.075233394364652E1  -3.188178854572814E1  -6.366768777111357E1  -8.897473155269836E1  -1.422353338719155E1   1.045104741697623E2  
                        
 6.943951951951952E10   -1.586371469802561E1   1.294034473355841E2  -5.641659414747900E1  -1.616868306003215E2  -3.521376501467800E1   1.770923092754750E2  -4.210538498577422E1  -1.470819302873907E2  
                        -5.835679601274637E1   1.740101970175823E2  -8.524947349445940   4.706149343839123E1  -3.943304723779083E1   1.318499711595454E2  -3.104412304784447E1  -7.728345382987492E1  
                        -3.569778089462518E1   1.785697361915910E2  -4.037840078730321E1   1.179157878589495E2  -1.716871142973841E1  -1.354174313545601E2  -5.842743816802663E1   1.262946706376647E2  
                        -4.141011095009288E1  -1.420361993348332E2  -3.034062504959289E1  -7.848806673541019E1  -6.163377213153367E1   1.399493959944969E2  -6.461487398512651   1.265867761194331E2  
                        
 6.950957957957958E10   -8.964716175612489   1.661033317060658E2  -5.971411900572190E1  -2.465288850099137E1  -3.647815153091413E1   5.435265127473117E1  -4.037984867424134E1   9.869397707288671E1  
                        -6.093588678734459E1   9.111099983756450  -1.012015271484319E1   2.311863607509553E1  -3.912130037537992E1   1.235339157441222E1  -3.034454602198510E1  -1.354811807584624E2  
                        -3.632902898844903E1   6.417720652508098E1  -3.941957866995111E1   8.015442257410241  -1.242557174739752E1   1.689837531986256E2  -6.488526395333389E1  -1.541240394174026E2  
                        -4.110518579181797E1   1.185414764855963E2  -3.052224527935852E1  -1.294760316645598E2  -7.625888852936834E1  -3.478496348677652E1  -1.264100466231046E1   1.164156527768684E2  
                        
 6.957963963963963E10   -6.346347652785392   1.352265163771527E2  -6.405302425277961E1   1.085683616051967E1  -3.625466236477577E1  -5.790026917654689E1  -3.991839363834206E1   4.817314185047680  
                        -6.646575376385397E1  -1.184302703493923E2  -1.345618582623430E1  -6.278187505184239  -3.839823872142553E1  -1.003121110051778E2  -3.098066226599346E1   1.739137530643382E2  
                        -3.626998044635108E1  -5.806113297900243E1  -3.872664300456108E1  -1.031412964424881E2  -1.728265526241126E1   1.084512134676030E2  -6.923872106108928E1   1.688980680700649E2  
                        -4.007706451425125E1   1.399612213735152  -3.029879163175582E1   1.786301852314780E2  -6.602186084723962E1   1.094389474036089E1  -8.886510716817709   3.330437925954248E1  
                        
 6.964969969969969E10   -1.025423164749008E1   1.066011649685499E2  -5.806343964457713E1  -1.713698381942977E2  -3.587018613417776E1  -1.794609638941240E2  -3.946185030120030E1  -1.073393410790352E2  
                        -6.162219613180137E1  -1.453046855353269E2  -1.832452694256056E1  -5.235725518556433E1  -3.960965348636560E1   1.465232061939408E2  -3.016993231994276E1   1.344304916839894E2  
                        -3.606184049165121E1  -1.778893400461828E2  -3.908210415793769E1   1.503278757534302E2  -2.070137732876837E1  -1.516127279177951E2  -5.679525211663726E1   9.177112114904510E1  
                        -3.855155784549450E1  -1.011488890229849E2  -3.013813290867446E1   1.304365270087208E2  -6.983690298536875E1   1.716185084978048E2  -4.647922457989501   4.763583079688461E1  
                        
 6.971975975975975E10   -1.111866140764474E1   1.478614292024334E2  -5.660902537996191E1   5.418457583622732E1  -3.677952739588238E1   6.087132765787462E1  -3.982948189748326E1   1.199047668322290E2  
                        -6.758712707721020E1  -6.310531813694963E1  -1.920817474742469E1  -1.529248880643365E2  -3.858503113600354E1   3.530034128749618E1  -3.200912841996478E1   8.833548433426759E1  
                        -3.653829455778717E1   6.641693290911753E1  -3.793593916773192E1   3.916265820099679E1  -1.244983280232219E1   1.665938762604784E2  -6.368461703511564E1  -5.616667631317583E1  
                        -3.854343497850384E1   1.300813545407017E2  -3.063492566038230E1   8.744546986932413E1  -6.225013947143636E1  -1.733351455856217E2  -1.345587603641318E1   5.443074402833649E1  
                        
 6.978981981981981E10   -5.889041165480204   1.245180468139278E2  -5.860712463760306E1  -1.043504828526336E2  -3.740213299667216E1  -5.024863350982151E1  -3.921985909512431E1   1.772370777528311E1  
                        -5.959648066404161E1   1.778644067935581E2  -1.350991633843506E1   1.558544930985746E2  -3.974544767784758E1  -7.785605789392297E1  -3.181755276399266E1   5.065771063832439E1  
                        -3.674007422245069E1  -5.274350850822074E1  -4.089186577317656E1  -7.242861588751619E1  -1.342569328757240E1   1.137006018872156E2  -7.633948892721405E1   9.404052037483626E1  
                        -4.077178253879189E1   1.828087357465049E1  -3.131821220710019E1   4.279004368858033E1  -5.747599582749391E1  -2.486822373584609E1  -1.043621505930223E1  -4.184543235062473E1  
                        
 6.985987987987987E10   -6.971478900906551   8.811856765207537E1  -5.657655885906993E1   1.169912585181009E2  -3.535882631598481E1  -1.698530597885610E2  -4.041239415104972E1  -8.587432389698444E1  
                        -6.494804542841648E1   1.187100774360129E2  -1.068095159059612E1   1.215716176400193E2  -3.994943119965421E1  -1.796399364330398E2  -3.202999335499163E1   6.433763353204422  
                        -3.588607046230138E1  -1.715265385818778E2  -3.912414753269423E1   1.695924475683998E2  -2.657155724637125E1   1.148661428761939E2  -5.632716357444028E1   1.416559387512956E2  
                        -3.920537023337918E1  -9.197536682069134E1  -3.051248094507607E1  -1.924019057054229  -5.610438617098153E1   1.270548835633472E2  -1.061587519542247E1  -2.136972321613865E1  
                        
 6.992993993993994E10   -1.398833167564076E1   9.166110547354201E1  -5.677547906706261E1  -1.509773466928561E1  -3.619143719205100E1   6.058989699118325E1  -4.091343620662908E1   1.556870659363617E2  
                        -5.695573222633444E1   5.061451563528110E1  -9.666596831907190   9.138802943860031E1  -4.014783363701676E1   6.828143349364240E1  -3.100654040499562E1  -4.957562890555563E1  
                        -3.593446032102363E1   6.760870398228393E1  -4.004541241829055E1   5.890758404376437E1  -1.319227234427035E1   1.612203544808476E2  -5.926451063564332E1   1.208631746716710E2  
                        -3.937165807554218E1   1.603734436208493E2  -3.058831772032652E1  -5.036222496105069E1  -5.560434078382656E1   1.024086033333428E2  -1.706744182477310E1   1.053818291502033E2  
                        
 7.000000000000000E10   -7.740959842540279   1.142631341599260E2  -5.549370239061171E1  -5.152860851729287  -3.699492046624464E1  -5.733048547446641E1  -4.091440366090856E1   3.950916919162351E1  
                        -5.578900518819533E1  -2.092107108830343E1  -8.936165615439606   6.282774095376885E1  -4.007388828951084E1  -4.804677530685760E1  -3.059039678142741E1  -1.099549901479731E2  
                        -3.666980651235523E1  -5.782654946901529E1  -3.958820076416806E1  -3.353365342930668E1  -1.154052446910273E1   1.170452192414518E2  -5.107576663973663E1  -1.138113131862738E2  
                        -4.169909581742978E1   5.565886115299404E1  -3.101677198861198E1  -9.382925796088418E1  -7.123930320257260E1   6.301640960361322E1  -9.910651391864109   1.707275469757570E2  
